MnO2-110\(2)                            
   1.00000000000000     
     2.9526998996999998    0.0000000000000000    0.0000000000000000
     0.0000000000000000    6.3260002136000004    0.0000000000000000
     0.0000000000000000    0.0000000000000000   40.0000000000000000
   Mn   O 
    10    20
Direct
  0.9999999993906954  0.0000075932083803  0.3446677818687363
  0.0000000005612577  0.5001302587619136  0.4221646192189183
  0.9999999994431050  0.0002406246658424  0.5018116177416019
  0.9999999999547242  0.5001147125930956  0.5814039578840990
  0.0000000005262706  0.0004504369106542  0.6589837133098797
  0.4999999985906598  0.5000169664803948  0.3421248991540153
  0.5000000006229399  0.0001238865023012  0.4234626501109773
  0.4999999998568825  0.5002486832259905  0.5017826166002308
  0.5000000015291235  0.0000930050766002  0.5801544478878569
  0.4999999998381668  0.5004048257528453  0.6615030841318443
  0.9999999989768398  0.5000255467356496  0.3125623734388370
  0.0000000006911165  0.0000573317820667  0.3923144310042872
  0.9999999987406980  0.5000980472902654  0.4709202538284245
  0.0000000011991617  0.0001179641114533  0.5499036209461750
  0.9999999999349853  0.5001479795751820  0.6299383320847056
  0.9999999993645474  0.5005491037244738  0.6910996886577578
  0.9999999985598151  0.5001308470615271  0.3736604811510063
  0.0000000004123137  0.0002229078373901  0.4536887987367848
  0.0000000000822880  0.5004968928771945  0.5326282715605259
  0.0000000010166090  0.0003279903052587  0.6113046310996850
  0.4999999988985451  0.1914754173732689  0.3372729177607781
  0.5000000014627020  0.6945242238139500  0.4220688229370566
  0.4999999992410054  0.1944195682514618  0.5017623354527458
  0.5000000008449632  0.6944785153697381  0.5814628799738628
  0.5000000021961668  0.1920189344649259  0.6663798979750339
  0.4999999993040092  0.8085497234901737  0.3372741487294348
  0.5000000003831886  0.3057237314487082  0.4220477052746290
  0.4999999998806288  0.8060818236360774  0.5017463614618123
  0.4999999997926210  0.3057407068793339  0.5813980927650633
  0.4999999987039772  0.8088618587938754  0.6663765912532469
 
  0.00000000E+00  0.00000000E+00  0.00000000E+00
  0.00000000E+00  0.00000000E+00  0.00000000E+00
  0.00000000E+00  0.00000000E+00  0.00000000E+00
  0.00000000E+00  0.00000000E+00  0.00000000E+00
  0.00000000E+00  0.00000000E+00  0.00000000E+00
  0.00000000E+00  0.00000000E+00  0.00000000E+00
  0.00000000E+00  0.00000000E+00  0.00000000E+00
  0.00000000E+00  0.00000000E+00  0.00000000E+00
  0.00000000E+00  0.00000000E+00  0.00000000E+00
  0.00000000E+00  0.00000000E+00  0.00000000E+00
  0.00000000E+00  0.00000000E+00  0.00000000E+00
  0.00000000E+00  0.00000000E+00  0.00000000E+00
  0.00000000E+00  0.00000000E+00  0.00000000E+00
  0.00000000E+00  0.00000000E+00  0.00000000E+00
  0.00000000E+00  0.00000000E+00  0.00000000E+00
  0.00000000E+00  0.00000000E+00  0.00000000E+00
  0.00000000E+00  0.00000000E+00  0.00000000E+00
  0.00000000E+00  0.00000000E+00  0.00000000E+00
  0.00000000E+00  0.00000000E+00  0.00000000E+00
  0.00000000E+00  0.00000000E+00  0.00000000E+00
  0.00000000E+00  0.00000000E+00  0.00000000E+00
  0.00000000E+00  0.00000000E+00  0.00000000E+00
  0.00000000E+00  0.00000000E+00  0.00000000E+00
  0.00000000E+00  0.00000000E+00  0.00000000E+00
  0.00000000E+00  0.00000000E+00  0.00000000E+00
  0.00000000E+00  0.00000000E+00  0.00000000E+00
  0.00000000E+00  0.00000000E+00  0.00000000E+00
  0.00000000E+00  0.00000000E+00  0.00000000E+00
  0.00000000E+00  0.00000000E+00  0.00000000E+00
  0.00000000E+00  0.00000000E+00  0.00000000E+00
