HfO2\(1\1\1)                            
   1.00000000000000     
     7.2580867537545313    0.0000000000000000    0.0000000000000000
    -2.9176513437128464    5.9449039603802909    0.0000000000000000
     0.0000000000000000    0.0000000000000000   41.9704017639000000
   Hf   O 
    16    32
Direct
  0.3066894663188933  0.6811354814192470  0.3842021124817094
  0.9231291032512203  0.9801366982319664  0.4593413480065038
  0.5513481981932955  0.2855562712327924  0.5361895721668688
  0.1760297155505057  0.5792746648098515  0.6092077753364933
  0.7480072291100441  0.6323576867306784  0.3915344385062909
  0.3738767315558391  0.9391325504310970  0.4709041406207035
  0.9949976394715137  0.2373633199666330  0.5462998743231822
  0.6211706746612577  0.5320248672195049  0.6228582997921919
  0.1960771275431838  0.1201583567270603  0.3907858654472491
  0.8207035419021267  0.4137793911510457  0.4638143211989885
  0.4489244771361669  0.7192282073832317  0.5406615505858525
  0.0653879134801443  0.0182954897070786  0.6157967441695789
  0.7509720943022984  0.1674324812743890  0.3771443912316599
  0.3770532943234670  0.4620058051158367  0.4537045810220164
  0.9981664982985166  0.7602239635821704  0.5291010428669480
  0.6241215740417019  0.0670947320280675  0.6084631471343869
  0.0906678419717863  0.3403719188076266  0.3699950963298875
  0.7102736372115572  0.6513303601087372  0.4460470077278913
  0.3327454233643650  0.9551411206281983  0.5221304276360570
  0.9536182044622805  0.2558240759081798  0.5968817785243772
  0.6062014413712760  0.7987419929829258  0.3663904453788120
  0.2363655109686391  0.0972106259975263  0.4403210885283002
  0.8612435391923441  0.4001463165201073  0.5167778223917168
  0.4813527325783866  0.7018323703925802  0.5919774774130602
  0.4184316497940443  0.4436215568735662  0.4031198636246458
  0.0392688883410770  0.7441994601938546  0.4778710605309939
  0.6617581439347617  0.0480418933403399  0.5539487168029353
  0.2814029340446424  0.3590731688644837  0.6299892751048972
  0.8907889711206352  0.9976242861550730  0.4080185363320368
  0.5108137824786354  0.2991714568446966  0.4832213966426337
  0.1357383226371525  0.6021501595884331  0.5596775236258082
  0.7658856772746674  0.9007032482640511  0.6336185185573981
  0.4287605568765329  0.0377720018124563  0.3786328659879530
  0.0639301695032231  0.3383002126808421  0.4578444397268555
  0.6882499170646668  0.6411952983262807  0.5336210757555477
  0.3099060577304797  0.9326922082607112  0.6152858804556445
  0.7672416971350913  0.3521583159803399  0.4158612368431847
  0.3971836692126232  0.6634856063525447  0.4917232745950528
  0.0258529965274619  0.9612417164995861  0.5684246708396614
  0.6370943484894127  0.2712528662757379  0.6444008592514336
  0.0621936345441938  0.7667689428409616  0.3846827104636574
  0.6837477593956152  0.0581124117100558  0.4663565136295986
  0.3081219286344847  0.3609216023409019  0.5421810837902896
  0.9433979966107557  0.6617005762516754  0.6213922518070021
  0.7349707092371744  0.4281716952145374  0.3556022246738451
  0.3460377920416633  0.7380490467291665  0.4315826818271802
  0.9748351634700256  0.0358513237880231  0.5082752313482573
  0.6050635804550026  0.3473922138268790  0.5841378483210065
 
  0.00000000E+00  0.00000000E+00  0.00000000E+00
  0.00000000E+00  0.00000000E+00  0.00000000E+00
  0.00000000E+00  0.00000000E+00  0.00000000E+00
  0.00000000E+00  0.00000000E+00  0.00000000E+00
  0.00000000E+00  0.00000000E+00  0.00000000E+00
  0.00000000E+00  0.00000000E+00  0.00000000E+00
  0.00000000E+00  0.00000000E+00  0.00000000E+00
  0.00000000E+00  0.00000000E+00  0.00000000E+00
  0.00000000E+00  0.00000000E+00  0.00000000E+00
  0.00000000E+00  0.00000000E+00  0.00000000E+00
  0.00000000E+00  0.00000000E+00  0.00000000E+00
  0.00000000E+00  0.00000000E+00  0.00000000E+00
  0.00000000E+00  0.00000000E+00  0.00000000E+00
  0.00000000E+00  0.00000000E+00  0.00000000E+00
  0.00000000E+00  0.00000000E+00  0.00000000E+00
  0.00000000E+00  0.00000000E+00  0.00000000E+00
  0.00000000E+00  0.00000000E+00  0.00000000E+00
  0.00000000E+00  0.00000000E+00  0.00000000E+00
  0.00000000E+00  0.00000000E+00  0.00000000E+00
  0.00000000E+00  0.00000000E+00  0.00000000E+00
  0.00000000E+00  0.00000000E+00  0.00000000E+00
  0.00000000E+00  0.00000000E+00  0.00000000E+00
  0.00000000E+00  0.00000000E+00  0.00000000E+00
  0.00000000E+00  0.00000000E+00  0.00000000E+00
  0.00000000E+00  0.00000000E+00  0.00000000E+00
  0.00000000E+00  0.00000000E+00  0.00000000E+00
  0.00000000E+00  0.00000000E+00  0.00000000E+00
  0.00000000E+00  0.00000000E+00  0.00000000E+00
  0.00000000E+00  0.00000000E+00  0.00000000E+00
  0.00000000E+00  0.00000000E+00  0.00000000E+00
  0.00000000E+00  0.00000000E+00  0.00000000E+00
  0.00000000E+00  0.00000000E+00  0.00000000E+00
  0.00000000E+00  0.00000000E+00  0.00000000E+00
  0.00000000E+00  0.00000000E+00  0.00000000E+00
  0.00000000E+00  0.00000000E+00  0.00000000E+00
  0.00000000E+00  0.00000000E+00  0.00000000E+00
  0.00000000E+00  0.00000000E+00  0.00000000E+00
  0.00000000E+00  0.00000000E+00  0.00000000E+00
  0.00000000E+00  0.00000000E+00  0.00000000E+00
  0.00000000E+00  0.00000000E+00  0.00000000E+00
  0.00000000E+00  0.00000000E+00  0.00000000E+00
  0.00000000E+00  0.00000000E+00  0.00000000E+00
  0.00000000E+00  0.00000000E+00  0.00000000E+00
  0.00000000E+00  0.00000000E+00  0.00000000E+00
  0.00000000E+00  0.00000000E+00  0.00000000E+00
  0.00000000E+00  0.00000000E+00  0.00000000E+00
  0.00000000E+00  0.00000000E+00  0.00000000E+00
  0.00000000E+00  0.00000000E+00  0.00000000E+00
