HfO2\(1\1\1)                            
   1.00000000000000     
     7.2580867537545313    0.0000000000000000    0.0000000000000000
    -2.9176513437128464    5.9449039603802909    0.0000000000000000
     0.0000000000000000    0.0000000000000000   41.9704017639000000
   Hf   O 
    16    32
Direct
  0.3060717219789382  0.6804451656651267  0.3838920851275205
  0.9237586549021941  0.9806032436163434  0.4596613157673488
  0.5515173401898039  0.2859319534747442  0.5360279744679772
  0.1765861180139581  0.5783525733281536  0.6095678773672120
  0.7480854015599689  0.6347621126467473  0.3924568044017036
  0.3734946653092663  0.9387593826667668  0.4707015723614845
  0.9959614458675787  0.2382739265744931  0.5464262895404133
  0.6205461773839147  0.5341511214030348  0.6224814184917093
  0.1955247100837099  0.1210831040516709  0.3904307252504182
  0.8205404954133755  0.4134132018219177  0.4639760298090749
  0.4482856229996628  0.7187647147806686  0.5403450108282755
  0.0660079832489089  0.0189670827832273  0.6161035451899153
  0.7515636558918786  0.1652744259861336  0.3775197423184409
  0.3760856347438306  0.4610851570713805  0.4535746320794942
  0.9985454193043211  0.7605799998852945  0.5292996315644771
  0.6240406664132934  0.0647196958822676  0.6075529121573737
  0.0877043362182448  0.3430601495448329  0.3708266254369192
  0.7101240564620355  0.6516941904905096  0.4459903429988472
  0.3332054014627417  0.9551107376513599  0.5220318095499294
  0.9539686599070265  0.2564828063191413  0.5970694393066438
  0.6069671268233634  0.7995699494087631  0.3671107432316632
  0.2358631941129445  0.0967397806509993  0.4401303589072967
  0.8614319593923128  0.4002366972214091  0.5169093969503749
  0.4808107485936404  0.7022628463066667  0.5917915336307331
  0.4181262990921866  0.4429530058980404  0.4029292653992229
  0.0388244599740659  0.7442249626795956  0.4779667556157534
  0.6619190967793642  0.0476728266664281  0.5540039597110109
  0.2843892853000156  0.3563670149936584  0.6291761055843850
  0.8912949091161622  0.9971657381381647  0.4082068366674818
  0.5106286248745491  0.2990888010069668  0.4830817691633555
  0.1361746208371954  0.6026094471162011  0.5598685068547482
  0.7650930003049154  0.8998783112499211  0.6329013317908903
  0.4296914403414505  0.0401333878251648  0.3788560669010792
  0.0636749018364782  0.3376652910641837  0.4580448303166307
  0.6885088322195827  0.6419417223865196  0.5334938610306210
  0.3110241009670389  0.9334276721212689  0.6157613203204875
  0.7671406718025722  0.3518561387860117  0.4161378257302246
  0.3964149102789918  0.6627965599369432  0.4915495192874033
  0.0273012958349170  0.9622910693336877  0.5686228298600611
  0.6378081359402898  0.2709158422622195  0.6440755912053291
  0.0610852734858938  0.7660386034747972  0.3842138029562960
  0.6835156611417119  0.0573805347008971  0.4664993030708899
  0.3083902024682175  0.3616261522939368  0.5419738477336367
  0.9424062429400664  0.6593479039313834  0.6211365694698401
  0.7343505715550052  0.4285804206954893  0.3559296616823175
  0.3446542291422361  0.7370276667783671  0.4313755711070826
  0.9756750617547425  0.0365625266505063  0.5084525655494119
  0.6050169325502210  0.3475743981497033  0.5838645756148253
 
  0.00000000E+00  0.00000000E+00  0.00000000E+00
  0.00000000E+00  0.00000000E+00  0.00000000E+00
  0.00000000E+00  0.00000000E+00  0.00000000E+00
  0.00000000E+00  0.00000000E+00  0.00000000E+00
  0.00000000E+00  0.00000000E+00  0.00000000E+00
  0.00000000E+00  0.00000000E+00  0.00000000E+00
  0.00000000E+00  0.00000000E+00  0.00000000E+00
  0.00000000E+00  0.00000000E+00  0.00000000E+00
  0.00000000E+00  0.00000000E+00  0.00000000E+00
  0.00000000E+00  0.00000000E+00  0.00000000E+00
  0.00000000E+00  0.00000000E+00  0.00000000E+00
  0.00000000E+00  0.00000000E+00  0.00000000E+00
  0.00000000E+00  0.00000000E+00  0.00000000E+00
  0.00000000E+00  0.00000000E+00  0.00000000E+00
  0.00000000E+00  0.00000000E+00  0.00000000E+00
  0.00000000E+00  0.00000000E+00  0.00000000E+00
  0.00000000E+00  0.00000000E+00  0.00000000E+00
  0.00000000E+00  0.00000000E+00  0.00000000E+00
  0.00000000E+00  0.00000000E+00  0.00000000E+00
  0.00000000E+00  0.00000000E+00  0.00000000E+00
  0.00000000E+00  0.00000000E+00  0.00000000E+00
  0.00000000E+00  0.00000000E+00  0.00000000E+00
  0.00000000E+00  0.00000000E+00  0.00000000E+00
  0.00000000E+00  0.00000000E+00  0.00000000E+00
  0.00000000E+00  0.00000000E+00  0.00000000E+00
  0.00000000E+00  0.00000000E+00  0.00000000E+00
  0.00000000E+00  0.00000000E+00  0.00000000E+00
  0.00000000E+00  0.00000000E+00  0.00000000E+00
  0.00000000E+00  0.00000000E+00  0.00000000E+00
  0.00000000E+00  0.00000000E+00  0.00000000E+00
  0.00000000E+00  0.00000000E+00  0.00000000E+00
  0.00000000E+00  0.00000000E+00  0.00000000E+00
  0.00000000E+00  0.00000000E+00  0.00000000E+00
  0.00000000E+00  0.00000000E+00  0.00000000E+00
  0.00000000E+00  0.00000000E+00  0.00000000E+00
  0.00000000E+00  0.00000000E+00  0.00000000E+00
  0.00000000E+00  0.00000000E+00  0.00000000E+00
  0.00000000E+00  0.00000000E+00  0.00000000E+00
  0.00000000E+00  0.00000000E+00  0.00000000E+00
  0.00000000E+00  0.00000000E+00  0.00000000E+00
  0.00000000E+00  0.00000000E+00  0.00000000E+00
  0.00000000E+00  0.00000000E+00  0.00000000E+00
  0.00000000E+00  0.00000000E+00  0.00000000E+00
  0.00000000E+00  0.00000000E+00  0.00000000E+00
  0.00000000E+00  0.00000000E+00  0.00000000E+00
  0.00000000E+00  0.00000000E+00  0.00000000E+00
  0.00000000E+00  0.00000000E+00  0.00000000E+00
  0.00000000E+00  0.00000000E+00  0.00000000E+00
