ZrO2\(1\1\1)\(0\0\1)                    
   1.00000000000000     
     7.3352707911303350    0.0000000000000000    0.0000000000000000
    -2.9429100288809722    6.0037072480812954    0.0000000000000000
     0.0000000000000000    0.0000000000000000   42.0868988037000022
   Zr   O 
    16    32
Direct
  0.3177014984669100  0.1265567907020397  0.3894652449294469
  0.9456246067036957  0.4369581995112100  0.4706730098365526
  0.5669114719827348  0.7360945028666492  0.5466528085826710
  0.1943510144432778  0.0320584449252408  0.6237621658275359
  0.7659952658332898  0.6158263447228620  0.3900710428094598
  0.3917221297734983  0.9116427138764536  0.4633706622990914
  0.0214244956061549  0.2192232288472056  0.5410830411198475
  0.6379103065616150  0.5176624558417089  0.6168081951378070
  0.8761345138866332  0.1762918279747296  0.3831944098122335
  0.4926166177452345  0.4746588998395751  0.4589129817562636
  0.1223278472478668  0.7822137022136104  0.5366275264807001
  0.7480744819611402  0.0781272821138259  0.6099236322553594
  0.3197450784428852  0.6619239683949871  0.3762287223679834
  0.9471544527402926  0.9577931962333111  0.4533458977383305
  0.5683954324468843  0.2569082690855566  0.5293261335176922
  0.1963478854322034  0.5674086240117475  0.6105413218353419
  0.3047437093083829  0.9181764803752586  0.3548480388550246
  0.9135911858147665  0.2345361263138699  0.4307697832048092
  0.5454912985285034  0.5333665120110425  0.5085171070381591
  0.1759557915445100  0.8460965660868851  0.5850134905386639
  0.9956666680287967  0.5326661216869795  0.3772572565460024
  0.6337834500171127  0.8349530426093139  0.4573758494388969
  0.2596684698239073  0.1395307697921808  0.5341087013036656
  0.8819320529480876  0.4315666258886353  0.6179227555496567
  0.9877476576514468  0.9403943676034103  0.4024776589100014
  0.6093190720107557  0.2411095946084743  0.4778872971941155
  0.2331501003165428  0.5471371252531938  0.5545567043361359
  0.8513753190650988  0.8658448557671790  0.6322502913403554
  0.4619950552802479  0.4913631744307949  0.4072213055099851
  0.0825544638016922  0.7960804895783795  0.4829747532631075
  0.7080991871693385  0.1003026115532037  0.5598898525024865
  0.3409833881814208  0.3984865619481113  0.6347562278392047
  0.1731214287054073  0.2955208317071438  0.3652564823533169
  0.8059626039488492  0.5935977697447115  0.4401097304397084
  0.4314644332123052  0.8977475754301238  0.5170294014086849
  0.0520888712282570  0.2025790006994583  0.5927825121881725
  0.6627060547357502  0.8281733840011896  0.3677432494724755
  0.2809140586398655  0.1467561768613876  0.4454403265523794
  0.9047294028752262  0.4527409528401165  0.5221174627355367
  0.5262728247996549  0.7535237585755823  0.5975279957129942
  0.6320810464123525  0.2623680391913297  0.3820817009721154
  0.2543056519502400  0.5542847456839652  0.4658756720231167
  0.8802499525760581  0.8588937524621159  0.5426417493731250
  0.5183445712665034  0.1612449187960152  0.6227259390820166
  0.3381256816493234  0.8478233352281990  0.4149888015842507
  0.9685097277510621  0.1604942339401489  0.4914791699826608
  0.6003524955473623  0.4592900338807979  0.5692326222282205
  0.2092773031856581  0.7757720290962311  0.6451533142431387
 
  0.00000000E+00  0.00000000E+00  0.00000000E+00
  0.00000000E+00  0.00000000E+00  0.00000000E+00
  0.00000000E+00  0.00000000E+00  0.00000000E+00
  0.00000000E+00  0.00000000E+00  0.00000000E+00
  0.00000000E+00  0.00000000E+00  0.00000000E+00
  0.00000000E+00  0.00000000E+00  0.00000000E+00
  0.00000000E+00  0.00000000E+00  0.00000000E+00
  0.00000000E+00  0.00000000E+00  0.00000000E+00
  0.00000000E+00  0.00000000E+00  0.00000000E+00
  0.00000000E+00  0.00000000E+00  0.00000000E+00
  0.00000000E+00  0.00000000E+00  0.00000000E+00
  0.00000000E+00  0.00000000E+00  0.00000000E+00
  0.00000000E+00  0.00000000E+00  0.00000000E+00
  0.00000000E+00  0.00000000E+00  0.00000000E+00
  0.00000000E+00  0.00000000E+00  0.00000000E+00
  0.00000000E+00  0.00000000E+00  0.00000000E+00
  0.00000000E+00  0.00000000E+00  0.00000000E+00
  0.00000000E+00  0.00000000E+00  0.00000000E+00
  0.00000000E+00  0.00000000E+00  0.00000000E+00
  0.00000000E+00  0.00000000E+00  0.00000000E+00
  0.00000000E+00  0.00000000E+00  0.00000000E+00
  0.00000000E+00  0.00000000E+00  0.00000000E+00
  0.00000000E+00  0.00000000E+00  0.00000000E+00
  0.00000000E+00  0.00000000E+00  0.00000000E+00
  0.00000000E+00  0.00000000E+00  0.00000000E+00
  0.00000000E+00  0.00000000E+00  0.00000000E+00
  0.00000000E+00  0.00000000E+00  0.00000000E+00
  0.00000000E+00  0.00000000E+00  0.00000000E+00
  0.00000000E+00  0.00000000E+00  0.00000000E+00
  0.00000000E+00  0.00000000E+00  0.00000000E+00
  0.00000000E+00  0.00000000E+00  0.00000000E+00
  0.00000000E+00  0.00000000E+00  0.00000000E+00
  0.00000000E+00  0.00000000E+00  0.00000000E+00
  0.00000000E+00  0.00000000E+00  0.00000000E+00
  0.00000000E+00  0.00000000E+00  0.00000000E+00
  0.00000000E+00  0.00000000E+00  0.00000000E+00
  0.00000000E+00  0.00000000E+00  0.00000000E+00
  0.00000000E+00  0.00000000E+00  0.00000000E+00
  0.00000000E+00  0.00000000E+00  0.00000000E+00
  0.00000000E+00  0.00000000E+00  0.00000000E+00
  0.00000000E+00  0.00000000E+00  0.00000000E+00
  0.00000000E+00  0.00000000E+00  0.00000000E+00
  0.00000000E+00  0.00000000E+00  0.00000000E+00
  0.00000000E+00  0.00000000E+00  0.00000000E+00
  0.00000000E+00  0.00000000E+00  0.00000000E+00
  0.00000000E+00  0.00000000E+00  0.00000000E+00
  0.00000000E+00  0.00000000E+00  0.00000000E+00
  0.00000000E+00  0.00000000E+00  0.00000000E+00
