CONTCAR\(3)\(1\1\1)                     
   1.00000000000000     
     5.0150531979022883    0.0000000000000000    0.0000000000000000
     0.0000000000000000    8.6292760398643793    0.0000000000000000
     0.0000000000000000    0.0000000000000000   26.1805992126000007
   Cu
    32
Direct
  0.0000000000000000 -0.0002077241726485  0.3807948119584622
  0.5000000000000000  0.4997922758216316  0.3807948119584622
  0.5000000000000000  0.1665202102598473  0.4605787932828874
 -0.0000000000000000  0.6665202401144371  0.4605787932828874
 -0.0000000000000000  0.3334797897344328  0.5394211769393393
  0.5000000000000000  0.8334797598684033  0.5394211769393393
  0.0000000000000000  0.0002077241726485  0.6192052178498714
  0.5000000000000000  0.5002077241669287  0.6192052178498714
  0.7499999999009219  0.2497922758244880  0.3807948119584622
  0.2499999999009219  0.7497922758187682  0.3807948119584622
  0.2499999999009219  0.4165202102569838  0.4605787932828874
  0.7499999999009219  0.9165202401115736  0.4605787932828874
  0.2499999999009219  0.0834797823008200  0.5394211769393393
  0.7499999999009219  0.5834797598712668  0.5394211769393393
  0.7499999999009219  0.2502077241697851  0.6192052178498714
  0.2499999999009219  0.7502077241640651  0.6192052178498714
  0.2499999999009219  0.2497922758244880  0.3807948119584622
  0.7499999999009219  0.7497922758187682  0.3807948119584622
  0.7499999999009219  0.4165202102569838  0.4605787932828874
  0.2499999999009219  0.9165202401115736  0.4605787932828874
  0.7499999999009219  0.0834797823008200  0.5394211769393393
  0.2499999999009219  0.5834797598712668  0.5394211769393393
  0.2499999999009219  0.2502077241697851  0.6192052178498714
  0.7499999999009219  0.7502077241640651  0.6192052178498714
  0.5000000000000000 -0.0002077241726485  0.3807948119584622
  0.0000000000000000  0.4997922758216316  0.3807948119584622
 -0.0000000000000000  0.1665202102598473  0.4605787932828874
  0.5000000000000000  0.6665202401144371  0.4605787932828874
  0.5000000000000000  0.3334797897344328  0.5394211769393393
 -0.0000000000000000  0.8334797598684033  0.5394211769393393
  0.5000000000000000  0.0002077241726485  0.6192052178498714
  0.0000000000000000  0.5002077241669287  0.6192052178498714
 
  0.00000000E+00  0.00000000E+00  0.00000000E+00
  0.00000000E+00  0.00000000E+00  0.00000000E+00
  0.00000000E+00  0.00000000E+00  0.00000000E+00
  0.00000000E+00  0.00000000E+00  0.00000000E+00
  0.00000000E+00  0.00000000E+00  0.00000000E+00
  0.00000000E+00  0.00000000E+00  0.00000000E+00
  0.00000000E+00  0.00000000E+00  0.00000000E+00
  0.00000000E+00  0.00000000E+00  0.00000000E+00
  0.00000000E+00  0.00000000E+00  0.00000000E+00
  0.00000000E+00  0.00000000E+00  0.00000000E+00
  0.00000000E+00  0.00000000E+00  0.00000000E+00
  0.00000000E+00  0.00000000E+00  0.00000000E+00
  0.00000000E+00  0.00000000E+00  0.00000000E+00
  0.00000000E+00  0.00000000E+00  0.00000000E+00
  0.00000000E+00  0.00000000E+00  0.00000000E+00
  0.00000000E+00  0.00000000E+00  0.00000000E+00
  0.00000000E+00  0.00000000E+00  0.00000000E+00
  0.00000000E+00  0.00000000E+00  0.00000000E+00
  0.00000000E+00  0.00000000E+00  0.00000000E+00
  0.00000000E+00  0.00000000E+00  0.00000000E+00
  0.00000000E+00  0.00000000E+00  0.00000000E+00
  0.00000000E+00  0.00000000E+00  0.00000000E+00
  0.00000000E+00  0.00000000E+00  0.00000000E+00
  0.00000000E+00  0.00000000E+00  0.00000000E+00
  0.00000000E+00  0.00000000E+00  0.00000000E+00
  0.00000000E+00  0.00000000E+00  0.00000000E+00
  0.00000000E+00  0.00000000E+00  0.00000000E+00
  0.00000000E+00  0.00000000E+00  0.00000000E+00
  0.00000000E+00  0.00000000E+00  0.00000000E+00
  0.00000000E+00  0.00000000E+00  0.00000000E+00
  0.00000000E+00  0.00000000E+00  0.00000000E+00
  0.00000000E+00  0.00000000E+00  0.00000000E+00
