Mn  O                                   
   1.00000000000000     
     7.2141862179939364    0.0000000000000000   -0.0467302164885960
     0.0000000000000000   18.0546563584592619    0.0000000000000000
    -1.8413447509987313    0.0000000000000000    9.8619767640892331
   Mn   O 
    16    56
Direct
  0.3490350899131287  0.2458907595785733  0.0460361120404147
  0.6509649100868430  0.7458907595785450  0.4539638879595779
  0.6509649100868430  0.7541092404214550  0.9539638879596209
  0.3490350899131287  0.2541092404214337  0.5460361120403791
  0.9296520155268913  0.2462218058934871  0.8915043059080521
  0.0703479844731232  0.7462218058934517  0.6084956940919479
  0.0703479844731232  0.7537781941065483  0.1084956940919549
  0.9296520155268913  0.2537781941065202  0.3915043059080522
  0.7943707113788441  0.9968840674283843  0.1744074727792245
  0.2056292886211703  0.4968840674283913  0.3255925272207827
  0.2056292886211703  0.0031159325716017  0.8255925272207754
  0.7943707113788441  0.5031159325716157  0.6744074727792246
  0.2139788397331628  0.9973074878215530  0.3282492913876591
  0.7860211602668158  0.4973074878215672  0.1717507086123340
  0.7860211602668158  0.0026925121784400  0.6717507086123196
  0.2139788397331628  0.5026925121784470  0.8282492913876804
  0.1385877898915803  0.2905698774836660  0.9702685358299081
  0.8614122101084268  0.7905698774836664  0.5297314641700919
  0.8614122101084268  0.7094301225163336  0.0297314641700777
  0.1385877898915803  0.2094301225163269  0.4702685358299155
  0.4202214031504876  0.1968520705220931  0.9359657221235190
  0.5797785968495046  0.6968520705220862  0.5640342778764810
  0.5797785968495046  0.8031479294779138  0.0640342778765022
  0.4202214031504876  0.3031479294778927  0.4359657221234979
  0.4974113042236932  0.3077347192795951  0.1013669934925669
  0.5025886957763207  0.8077347192795949  0.3986330065074474
  0.5025886957763207  0.6922652807204051  0.8986330065074120
  0.4974113042236932  0.1922652807203976  0.6013669934925880
  0.3078329539417985  0.1954841819794786  0.1653774091612418
  0.6921670460582019  0.6954841819794858  0.3346225908387510
  0.6921670460582019  0.8045158180205142  0.8346225908387581
  0.3078329539417985  0.3045158180205284  0.6653774091612419
  0.8628682305237492  0.1925377690349606  0.9968497814026274
  0.1371317694762510  0.6925377690349467  0.5031502185973726
  0.1371317694762510  0.8074622309650533  0.0031502185973724
  0.8628682305237492  0.3074622309650325  0.4968497814026349
  0.7780453962697937  0.3081940504330380  0.8440905887861978
  0.2219546037302131  0.8081940504330379  0.6559094112138022
  0.2219546037302131  0.6918059495669621  0.1559094112138024
  0.7780453962697937  0.1918059495669693  0.3440905887861976
  0.9704422429601858  0.2005289126113306  0.7661493352505541
  0.0295577570398143  0.7005289126113661  0.7338506647494459
  0.0295577570398143  0.7994710873886339  0.2338506647494318
  0.9704422429601858  0.2994710873886767  0.2661493352505611
  0.0037595337682924  0.0416665331000384  0.2515050441576443
  0.9962404662317289  0.5416665331000456  0.2484949558423557
  0.9962404662317289  0.9583334668999544  0.7484949558423559
  0.0037595337682924  0.4583334668999617  0.7515050441576441
  0.8341304041279896  0.9501755950122091  0.0499505807150615
  0.1658695958720106  0.4501755950122016  0.4500494192849385
  0.1658695958720106  0.0498244049877983  0.9500494192849671
  0.8341304041279896  0.5498244049877909  0.5499505807150329
  0.6422701507628177  0.0585075252889393  0.1261373337917041
  0.3577298492371745  0.5585075252889111  0.3738626662082959
  0.3577298492371745  0.9414924747110889  0.8738626662082889
  0.6422701507628177  0.4414924747110608  0.6261373337917111
  0.7289747840983877  0.9440490326595766  0.2816112659649087
  0.2710252159016121  0.4440490326595766  0.2183887340350914
  0.2710252159016121  0.0559509673404165  0.7183887340350982
  0.7289747840983877  0.5559509673404234  0.7816112659649018
  0.2860233705841723  0.9476529812557326  0.2194052678674487
  0.7139766294158132  0.4476529812557186  0.2805947321325514
  0.7139766294158132  0.0523470187442743  0.7805947321325586
  0.2860233705841723  0.5523470187442674  0.7194052678674414
  0.3618947219198344  0.0594758637745676  0.3828931126481055
  0.6381052780801800  0.5594758637745890  0.1171068873519088
  0.6381052780801800  0.9405241362254110  0.6171068873519088
  0.3618947219198344  0.4405241362254467  0.8828931126480912
  0.1722506023521496  0.9475568190959087  0.4482882823761529
  0.8277493976478361  0.4475568190959084  0.0517117176238471
  0.8277493976478361  0.0524431809040844  0.5517117176238401
  0.1722506023521496  0.5524431809040913  0.9482882823761599
 
  0.00000000E+00  0.00000000E+00  0.00000000E+00
  0.00000000E+00  0.00000000E+00  0.00000000E+00
  0.00000000E+00  0.00000000E+00  0.00000000E+00
  0.00000000E+00  0.00000000E+00  0.00000000E+00
  0.00000000E+00  0.00000000E+00  0.00000000E+00
  0.00000000E+00  0.00000000E+00  0.00000000E+00
  0.00000000E+00  0.00000000E+00  0.00000000E+00
  0.00000000E+00  0.00000000E+00  0.00000000E+00
  0.00000000E+00  0.00000000E+00  0.00000000E+00
  0.00000000E+00  0.00000000E+00  0.00000000E+00
  0.00000000E+00  0.00000000E+00  0.00000000E+00
  0.00000000E+00  0.00000000E+00  0.00000000E+00
  0.00000000E+00  0.00000000E+00  0.00000000E+00
  0.00000000E+00  0.00000000E+00  0.00000000E+00
  0.00000000E+00  0.00000000E+00  0.00000000E+00
  0.00000000E+00  0.00000000E+00  0.00000000E+00
  0.00000000E+00  0.00000000E+00  0.00000000E+00
  0.00000000E+00  0.00000000E+00  0.00000000E+00
  0.00000000E+00  0.00000000E+00  0.00000000E+00
  0.00000000E+00  0.00000000E+00  0.00000000E+00
  0.00000000E+00  0.00000000E+00  0.00000000E+00
  0.00000000E+00  0.00000000E+00  0.00000000E+00
  0.00000000E+00  0.00000000E+00  0.00000000E+00
  0.00000000E+00  0.00000000E+00  0.00000000E+00
  0.00000000E+00  0.00000000E+00  0.00000000E+00
  0.00000000E+00  0.00000000E+00  0.00000000E+00
  0.00000000E+00  0.00000000E+00  0.00000000E+00
  0.00000000E+00  0.00000000E+00  0.00000000E+00
  0.00000000E+00  0.00000000E+00  0.00000000E+00
  0.00000000E+00  0.00000000E+00  0.00000000E+00
  0.00000000E+00  0.00000000E+00  0.00000000E+00
  0.00000000E+00  0.00000000E+00  0.00000000E+00
  0.00000000E+00  0.00000000E+00  0.00000000E+00
  0.00000000E+00  0.00000000E+00  0.00000000E+00
  0.00000000E+00  0.00000000E+00  0.00000000E+00
  0.00000000E+00  0.00000000E+00  0.00000000E+00
  0.00000000E+00  0.00000000E+00  0.00000000E+00
  0.00000000E+00  0.00000000E+00  0.00000000E+00
  0.00000000E+00  0.00000000E+00  0.00000000E+00
  0.00000000E+00  0.00000000E+00  0.00000000E+00
  0.00000000E+00  0.00000000E+00  0.00000000E+00
  0.00000000E+00  0.00000000E+00  0.00000000E+00
  0.00000000E+00  0.00000000E+00  0.00000000E+00
  0.00000000E+00  0.00000000E+00  0.00000000E+00
  0.00000000E+00  0.00000000E+00  0.00000000E+00
  0.00000000E+00  0.00000000E+00  0.00000000E+00
  0.00000000E+00  0.00000000E+00  0.00000000E+00
  0.00000000E+00  0.00000000E+00  0.00000000E+00
  0.00000000E+00  0.00000000E+00  0.00000000E+00
  0.00000000E+00  0.00000000E+00  0.00000000E+00
  0.00000000E+00  0.00000000E+00  0.00000000E+00
  0.00000000E+00  0.00000000E+00  0.00000000E+00
  0.00000000E+00  0.00000000E+00  0.00000000E+00
  0.00000000E+00  0.00000000E+00  0.00000000E+00
  0.00000000E+00  0.00000000E+00  0.00000000E+00
  0.00000000E+00  0.00000000E+00  0.00000000E+00
  0.00000000E+00  0.00000000E+00  0.00000000E+00
  0.00000000E+00  0.00000000E+00  0.00000000E+00
  0.00000000E+00  0.00000000E+00  0.00000000E+00
  0.00000000E+00  0.00000000E+00  0.00000000E+00
  0.00000000E+00  0.00000000E+00  0.00000000E+00
  0.00000000E+00  0.00000000E+00  0.00000000E+00
  0.00000000E+00  0.00000000E+00  0.00000000E+00
  0.00000000E+00  0.00000000E+00  0.00000000E+00
  0.00000000E+00  0.00000000E+00  0.00000000E+00
  0.00000000E+00  0.00000000E+00  0.00000000E+00
  0.00000000E+00  0.00000000E+00  0.00000000E+00
  0.00000000E+00  0.00000000E+00  0.00000000E+00
  0.00000000E+00  0.00000000E+00  0.00000000E+00
  0.00000000E+00  0.00000000E+00  0.00000000E+00
  0.00000000E+00  0.00000000E+00  0.00000000E+00
  0.00000000E+00  0.00000000E+00  0.00000000E+00
