ZrO2\(1\1\1)\(0\0\1)                    
   1.00000000000000     
     7.3348647092074017    0.0000000000000000    0.0000000000000000
    -2.9426794057678576    6.0038008758193744    0.0000000000000000
     0.0000000000000000    0.0000000000000000   42.0868988037000022
   Zr   O 
    16    32
Direct
  0.3188541900227051  0.1321355464672749  0.3919619655716815
  0.9450306594402349  0.4365731281428538  0.4703449149102497
  0.5690395982690859  0.7378390420270122  0.5467322150972649
  0.1934637031481898  0.0347835564954480  0.6234285803811019
  0.7652816446102904  0.6179320267730048  0.3891797896301057
  0.3911608618214473  0.9108896730025222  0.4635608164840974
  0.0195527379970954  0.2174573988945099  0.5405192771881318
  0.6388029571552991  0.5194187256269203  0.6169728600330444
  0.8752250863724953  0.1744951408362923  0.3830283697557206
  0.4944618125360023  0.4763929588623839  0.4594808970860811
  0.1228273720095814  0.7829600996767070  0.5364376953826948
  0.7488025184894411  0.0760113951407178  0.6108185758693168
  0.3206466200689420  0.6592395504837398  0.3765637752066979
  0.9449324077587562  0.9560114436534803  0.4532672376442548
  0.5689634843069129  0.2572660261351558  0.5296554646124108
  0.1952162680296610  0.5618416051181896  0.6080391085215666
  0.3052982247822484  0.9251913269895127  0.3550907824903575
  0.9147313311676868  0.2335489039618253  0.4308425199990538
  0.5470359389213186  0.5346271830330167  0.5086061734945275
  0.1773799820784276  0.8478457928763135  0.5845606109684809
  0.9997693781961132  0.5370423490282050  0.3779248644628836
  0.6334059716660789  0.8343860213609702  0.4576923120411891
  0.2595320329663267  0.1403549748159278  0.5337874409626906
  0.8832343397646056  0.4335717031639348  0.6164835590136448
  0.9872779141130295  0.9379794705301094  0.4023537406240862
  0.6086612999896630  0.2409056789534887  0.4780018909404760
  0.2325831680345800  0.5454956061621274  0.5547003684396685
  0.8561049467432724  0.8537590948484990  0.6300750116557978
  0.4623576484798164  0.4930802079040433  0.4072243605367660
  0.0824411178409221  0.7964845023558880  0.4827431634985473
  0.7091919644687508  0.1010835871534965  0.5602205269495641
  0.3386306525967697  0.4001218269978821  0.6335580641831484
  0.1753744864621041  0.2937866987851478  0.3664524168963084
  0.8047711635448920  0.5927221020203746  0.4397802346291826
  0.4314300503754751  0.8973009760459050  0.5172560814480676
  0.0517185070655160  0.2009062381208011  0.5927706410902971
  0.6580214317214725  0.8402294885314490  0.3699136926492983
  0.2814280932864364  0.1484182957767715  0.4453040582473733
  0.9053960394471972  0.4528726109073702  0.5220075197863494
  0.5268097952252120  0.7558583703731117  0.5976547034243822
  0.6308754737186035  0.2603946987695451  0.3835470518583719
  0.2544376097327259  0.5534997180052628  0.4662081767296513
  0.8805347957751266  0.8594086347074352  0.5423079386716552
  0.5143283135641568  0.1569697465795272  0.6220649645465173
  0.3368851046450771  0.8462407323027890  0.4154293833860550
  0.9670618458847642  0.1592844756533296  0.4913843189368805
  0.5991927530831305  0.4602516590515080  0.5691556473793185
  0.2088367798711417  0.7689000217043045  0.6449062367135028
 
  0.00000000E+00  0.00000000E+00  0.00000000E+00
  0.00000000E+00  0.00000000E+00  0.00000000E+00
  0.00000000E+00  0.00000000E+00  0.00000000E+00
  0.00000000E+00  0.00000000E+00  0.00000000E+00
  0.00000000E+00  0.00000000E+00  0.00000000E+00
  0.00000000E+00  0.00000000E+00  0.00000000E+00
  0.00000000E+00  0.00000000E+00  0.00000000E+00
  0.00000000E+00  0.00000000E+00  0.00000000E+00
  0.00000000E+00  0.00000000E+00  0.00000000E+00
  0.00000000E+00  0.00000000E+00  0.00000000E+00
  0.00000000E+00  0.00000000E+00  0.00000000E+00
  0.00000000E+00  0.00000000E+00  0.00000000E+00
  0.00000000E+00  0.00000000E+00  0.00000000E+00
  0.00000000E+00  0.00000000E+00  0.00000000E+00
  0.00000000E+00  0.00000000E+00  0.00000000E+00
  0.00000000E+00  0.00000000E+00  0.00000000E+00
  0.00000000E+00  0.00000000E+00  0.00000000E+00
  0.00000000E+00  0.00000000E+00  0.00000000E+00
  0.00000000E+00  0.00000000E+00  0.00000000E+00
  0.00000000E+00  0.00000000E+00  0.00000000E+00
  0.00000000E+00  0.00000000E+00  0.00000000E+00
  0.00000000E+00  0.00000000E+00  0.00000000E+00
  0.00000000E+00  0.00000000E+00  0.00000000E+00
  0.00000000E+00  0.00000000E+00  0.00000000E+00
  0.00000000E+00  0.00000000E+00  0.00000000E+00
  0.00000000E+00  0.00000000E+00  0.00000000E+00
  0.00000000E+00  0.00000000E+00  0.00000000E+00
  0.00000000E+00  0.00000000E+00  0.00000000E+00
  0.00000000E+00  0.00000000E+00  0.00000000E+00
  0.00000000E+00  0.00000000E+00  0.00000000E+00
  0.00000000E+00  0.00000000E+00  0.00000000E+00
  0.00000000E+00  0.00000000E+00  0.00000000E+00
  0.00000000E+00  0.00000000E+00  0.00000000E+00
  0.00000000E+00  0.00000000E+00  0.00000000E+00
  0.00000000E+00  0.00000000E+00  0.00000000E+00
  0.00000000E+00  0.00000000E+00  0.00000000E+00
  0.00000000E+00  0.00000000E+00  0.00000000E+00
  0.00000000E+00  0.00000000E+00  0.00000000E+00
  0.00000000E+00  0.00000000E+00  0.00000000E+00
  0.00000000E+00  0.00000000E+00  0.00000000E+00
  0.00000000E+00  0.00000000E+00  0.00000000E+00
  0.00000000E+00  0.00000000E+00  0.00000000E+00
  0.00000000E+00  0.00000000E+00  0.00000000E+00
  0.00000000E+00  0.00000000E+00  0.00000000E+00
  0.00000000E+00  0.00000000E+00  0.00000000E+00
  0.00000000E+00  0.00000000E+00  0.00000000E+00
  0.00000000E+00  0.00000000E+00  0.00000000E+00
  0.00000000E+00  0.00000000E+00  0.00000000E+00
