IrO2-110                                
   1.00000000000000     
     3.1895999908000001    0.0000000000000000    0.0000000000000000
     0.0000000000000000    6.4197998047000002    0.0000000000000000
     0.0000000000000000    0.0000000000000000   40.0000000000000000
   Ir   O 
    10    20
Direct
  0.9999999989493418  0.9999755112826278  0.3570868480291907
  0.0000000005259366  0.4999829295079223  0.4354667019971430
  0.9999999997603979  0.9998645015324144  0.5163513171140295
  0.9999999995065210  0.4995906826043282  0.5972848199786256
  0.0000000009051959  0.9990438098951273  0.6755592311494496
  0.5000000000588543  0.4999748581007637  0.3545072478098064
  0.4999999994711999  0.9999790578586598  0.4364268743330726
  0.4999999997254676  0.4998692240095224  0.5163741582733721
  0.4999999997946816  0.9996069976450030  0.5962624357549657
  0.5000000005122516  0.4990761248399309  0.6781993126486796
  0.0000000014120971  0.4999447919613260  0.3250516830273753
  0.9999999994023270  0.0000133587285021  0.4059664224638695
  0.9999999996856488  0.4999082232116123  0.4853759459243960
  0.9999999996272138  0.9996508258294483  0.5654849870747825
  0.0000000004907363  0.4993000198399145  0.6469171728510688
  0.0000000001928768  0.4990138650073277  0.7076794957209529
  0.0000000011657164  0.4999761714537883  0.3858281036955660
  0.9999999994415205  0.0000035186842382  0.4672177485816889
  0.9999999998324327  0.4998743742964038  0.5473791856418231
  0.9999999997893383  0.9998976638748545  0.6267043859160637
  0.5000000005185399  0.1896862074427830  0.3535124638690661
  0.4999999993884998  0.6913885455318081  0.4356552083703491
  0.4999999992316120  0.1913875814003489  0.5163703085543148
  0.5000000003792735  0.6910099903518727  0.5971604052296016
  0.5000000012242296  0.1888325380090521  0.6791221529948643
  0.4999999999168381  0.8102798279546519  0.3535030570571323
  0.5000000005716885  0.3085498455300879  0.4356500953485991
  0.4999999988970387  0.8083392505766227  0.5163505388927447
  0.4999999995672155  0.3081925193536321  0.5971048778451546
  0.5000000000552944  0.8093271106854374  0.6790768418522362
 
  0.00000000E+00  0.00000000E+00  0.00000000E+00
  0.00000000E+00  0.00000000E+00  0.00000000E+00
  0.00000000E+00  0.00000000E+00  0.00000000E+00
  0.00000000E+00  0.00000000E+00  0.00000000E+00
  0.00000000E+00  0.00000000E+00  0.00000000E+00
  0.00000000E+00  0.00000000E+00  0.00000000E+00
  0.00000000E+00  0.00000000E+00  0.00000000E+00
  0.00000000E+00  0.00000000E+00  0.00000000E+00
  0.00000000E+00  0.00000000E+00  0.00000000E+00
  0.00000000E+00  0.00000000E+00  0.00000000E+00
  0.00000000E+00  0.00000000E+00  0.00000000E+00
  0.00000000E+00  0.00000000E+00  0.00000000E+00
  0.00000000E+00  0.00000000E+00  0.00000000E+00
  0.00000000E+00  0.00000000E+00  0.00000000E+00
  0.00000000E+00  0.00000000E+00  0.00000000E+00
  0.00000000E+00  0.00000000E+00  0.00000000E+00
  0.00000000E+00  0.00000000E+00  0.00000000E+00
  0.00000000E+00  0.00000000E+00  0.00000000E+00
  0.00000000E+00  0.00000000E+00  0.00000000E+00
  0.00000000E+00  0.00000000E+00  0.00000000E+00
  0.00000000E+00  0.00000000E+00  0.00000000E+00
  0.00000000E+00  0.00000000E+00  0.00000000E+00
  0.00000000E+00  0.00000000E+00  0.00000000E+00
  0.00000000E+00  0.00000000E+00  0.00000000E+00
  0.00000000E+00  0.00000000E+00  0.00000000E+00
  0.00000000E+00  0.00000000E+00  0.00000000E+00
  0.00000000E+00  0.00000000E+00  0.00000000E+00
  0.00000000E+00  0.00000000E+00  0.00000000E+00
  0.00000000E+00  0.00000000E+00  0.00000000E+00
  0.00000000E+00  0.00000000E+00  0.00000000E+00
