 CONVCELL                               
   1.00000000000000     
     2.8046998978000000    0.0000000000000000    0.0000000000000000
     0.0000000000000000    4.8578000068999998    0.0000000000000000
     0.0000000000000000    0.0000000000000000   36.8699989318999997
   Pt
     8
Selective dynamics
Direct
  0.0000000000000000  0.9992480285719978  0.4065255077436305   T   T   T
  0.5000000000000000  0.4992480285719978  0.4065255077436305   T   T   T
  0.0000000000000000  0.3333300050000005  0.4689399900000026   F   F   F
  0.5000000000000000  0.8333299760000017  0.4689399900000026   F   F   F
  0.5000000000000000  0.1666699949999995  0.5310599800000020   F   F   F
  0.0000000000000000  0.6666700239999983  0.5310599800000020   F   F   F
  0.0000000000000000  0.0007519714280022  0.5934744922563695   T   T   T
  0.5000000000000000  0.5007519714280022  0.5934744922563695   T   T   T
 
  0.00000000E+00  0.00000000E+00  0.00000000E+00
  0.00000000E+00  0.00000000E+00  0.00000000E+00
  0.00000000E+00  0.00000000E+00  0.00000000E+00
  0.00000000E+00  0.00000000E+00  0.00000000E+00
  0.00000000E+00  0.00000000E+00  0.00000000E+00
  0.00000000E+00  0.00000000E+00  0.00000000E+00
  0.00000000E+00  0.00000000E+00  0.00000000E+00
  0.00000000E+00  0.00000000E+00  0.00000000E+00
