 Y  O                                   
   1.00000000000000     
    10.6548313244370529   -0.0000000000000000   -0.0000000000000000
     0.0000000000000000   10.6548313244370529   -0.0000000000000000
     0.0000000000000000   -0.0000000000000000   10.6548313244370529
   Y    O 
    32    48
Direct
  0.9672247114276580  0.0000000000000000  0.2500000000000000
  0.5327752885723420  0.0000000000000000  0.7500000000000000
  0.0327752885723421  0.5000000000000000  0.2500000000000000
  0.0000000000000000  0.2500000000000000  0.9672247114276580
  0.0000000000000000  0.7500000000000000  0.5327752885723420
  0.5000000000000000  0.2500000000000000  0.0327752885723421
  0.2500000000000000  0.9672247114276580  0.0000000000000000
  0.7500000000000000  0.5327752885723420  0.0000000000000000
  0.2500000000000000  0.0327752885723421  0.5000000000000000
  0.0327752885723421  0.0000000000000000  0.7500000000000000
  0.4672247114276578  0.0000000000000000  0.2500000000000000
  0.9672247114276580  0.5000000000000000  0.7500000000000000
  0.0000000000000000  0.7500000000000000  0.0327752885723421
  0.0000000000000000  0.2500000000000000  0.4672247114276578
  0.5000000000000000  0.7500000000000000  0.9672247114276580
  0.7500000000000000  0.0327752885723421  0.0000000000000000
  0.2500000000000000  0.4672247114276578  0.0000000000000000
  0.7500000000000000  0.9672247114276580  0.5000000000000000
  0.4672247114276578  0.5000000000000000  0.7500000000000000
  0.5000000000000000  0.7500000000000000  0.4672247114276578
  0.7500000000000000  0.4672247114276578  0.5000000000000000
  0.5327752885723420  0.5000000000000000  0.2500000000000000
  0.5000000000000000  0.2500000000000000  0.5327752885723420
  0.2500000000000000  0.5327752885723420  0.5000000000000000
  0.2500000000000000  0.2500000000000000  0.2500000000000000
  0.2500000000000000  0.7500000000000000  0.2500000000000000
  0.2500000000000000  0.2500000000000000  0.7500000000000000
  0.7500000000000000  0.2500000000000000  0.2500000000000000
  0.7500000000000000  0.7500000000000000  0.7500000000000000
  0.7500000000000000  0.2500000000000000  0.7500000000000000
  0.7500000000000000  0.7500000000000000  0.2500000000000000
  0.2500000000000000  0.7500000000000000  0.7500000000000000
  0.3907746727177571  0.1517601706268905  0.3799365417731844
  0.3907746727177571  0.8482398293731095  0.1200634582268156
  0.1092253272822428  0.1517601706268905  0.6200634582268084
  0.6092253272822429  0.3482398293731095  0.3799365417731844
  0.1517601706268905  0.3799365417731844  0.3907746727177571
  0.8482398293731095  0.1200634582268156  0.3907746727177571
  0.1517601706268905  0.6200634582268084  0.1092253272822428
  0.3482398293731095  0.3799365417731844  0.6092253272822429
  0.3799365417731844  0.3907746727177571  0.1517601706268905
  0.1200634582268156  0.3907746727177571  0.8482398293731095
  0.6200634582268084  0.1092253272822428  0.1517601706268905
  0.3799365417731844  0.6092253272822429  0.3482398293731095
  0.6092253272822429  0.8482398293731095  0.6200634582268084
  0.6092253272822429  0.1517601706268905  0.8799365417731916
  0.8907746727177571  0.8482398293731095  0.3799365417731844
  0.3907746727177571  0.6517601706268905  0.6200634582268084
  0.8482398293731095  0.6200634582268084  0.6092253272822429
  0.1517601706268905  0.8799365417731916  0.6092253272822429
  0.8482398293731095  0.3799365417731844  0.8907746727177571
  0.6517601706268905  0.6200634582268084  0.3907746727177571
  0.6200634582268084  0.6092253272822429  0.8482398293731095
  0.8799365417731916  0.6092253272822429  0.1517601706268905
  0.3799365417731844  0.8907746727177571  0.8482398293731095
  0.6200634582268084  0.3907746727177571  0.6517601706268905
  0.8907746727177571  0.6517601706268905  0.8799365417731916
  0.8907746727177571  0.3482398293731095  0.6200634582268084
  0.6092253272822429  0.6517601706268905  0.1200634582268156
  0.1092253272822428  0.8482398293731095  0.8799365417731916
  0.6517601706268905  0.8799365417731916  0.8907746727177571
  0.3482398293731095  0.6200634582268084  0.8907746727177571
  0.6517601706268905  0.1200634582268156  0.6092253272822429
  0.8482398293731095  0.8799365417731916  0.1092253272822428
  0.8799365417731916  0.8907746727177571  0.6517601706268905
  0.6200634582268084  0.8907746727177571  0.3482398293731095
  0.1200634582268156  0.6092253272822429  0.6517601706268905
  0.8799365417731916  0.1092253272822428  0.8482398293731095
  0.1092253272822428  0.3482398293731095  0.1200634582268156
  0.1092253272822428  0.6517601706268905  0.3799365417731844
  0.3907746727177571  0.3482398293731095  0.8799365417731916
  0.8907746727177571  0.1517601706268905  0.1200634582268156
  0.3482398293731095  0.1200634582268156  0.1092253272822428
  0.6517601706268905  0.3799365417731844  0.1092253272822428
  0.3482398293731095  0.8799365417731916  0.3907746727177571
  0.1517601706268905  0.1200634582268156  0.8907746727177571
  0.1200634582268156  0.1092253272822428  0.3482398293731095
  0.3799365417731844  0.1092253272822428  0.6517601706268905
  0.8799365417731916  0.3907746727177571  0.3482398293731095
  0.1200634582268156  0.8907746727177571  0.1517601706268905
 
  0.00000000E+00  0.00000000E+00  0.00000000E+00
  0.00000000E+00  0.00000000E+00  0.00000000E+00
  0.00000000E+00  0.00000000E+00  0.00000000E+00
  0.00000000E+00  0.00000000E+00  0.00000000E+00
  0.00000000E+00  0.00000000E+00  0.00000000E+00
  0.00000000E+00  0.00000000E+00  0.00000000E+00
  0.00000000E+00  0.00000000E+00  0.00000000E+00
  0.00000000E+00  0.00000000E+00  0.00000000E+00
  0.00000000E+00  0.00000000E+00  0.00000000E+00
  0.00000000E+00  0.00000000E+00  0.00000000E+00
  0.00000000E+00  0.00000000E+00  0.00000000E+00
  0.00000000E+00  0.00000000E+00  0.00000000E+00
  0.00000000E+00  0.00000000E+00  0.00000000E+00
  0.00000000E+00  0.00000000E+00  0.00000000E+00
  0.00000000E+00  0.00000000E+00  0.00000000E+00
  0.00000000E+00  0.00000000E+00  0.00000000E+00
  0.00000000E+00  0.00000000E+00  0.00000000E+00
  0.00000000E+00  0.00000000E+00  0.00000000E+00
  0.00000000E+00  0.00000000E+00  0.00000000E+00
  0.00000000E+00  0.00000000E+00  0.00000000E+00
  0.00000000E+00  0.00000000E+00  0.00000000E+00
  0.00000000E+00  0.00000000E+00  0.00000000E+00
  0.00000000E+00  0.00000000E+00  0.00000000E+00
  0.00000000E+00  0.00000000E+00  0.00000000E+00
  0.00000000E+00  0.00000000E+00  0.00000000E+00
  0.00000000E+00  0.00000000E+00  0.00000000E+00
  0.00000000E+00  0.00000000E+00  0.00000000E+00
  0.00000000E+00  0.00000000E+00  0.00000000E+00
  0.00000000E+00  0.00000000E+00  0.00000000E+00
  0.00000000E+00  0.00000000E+00  0.00000000E+00
  0.00000000E+00  0.00000000E+00  0.00000000E+00
  0.00000000E+00  0.00000000E+00  0.00000000E+00
  0.00000000E+00  0.00000000E+00  0.00000000E+00
  0.00000000E+00  0.00000000E+00  0.00000000E+00
  0.00000000E+00  0.00000000E+00  0.00000000E+00
  0.00000000E+00  0.00000000E+00  0.00000000E+00
  0.00000000E+00  0.00000000E+00  0.00000000E+00
  0.00000000E+00  0.00000000E+00  0.00000000E+00
  0.00000000E+00  0.00000000E+00  0.00000000E+00
  0.00000000E+00  0.00000000E+00  0.00000000E+00
  0.00000000E+00  0.00000000E+00  0.00000000E+00
  0.00000000E+00  0.00000000E+00  0.00000000E+00
  0.00000000E+00  0.00000000E+00  0.00000000E+00
  0.00000000E+00  0.00000000E+00  0.00000000E+00
  0.00000000E+00  0.00000000E+00  0.00000000E+00
  0.00000000E+00  0.00000000E+00  0.00000000E+00
  0.00000000E+00  0.00000000E+00  0.00000000E+00
  0.00000000E+00  0.00000000E+00  0.00000000E+00
  0.00000000E+00  0.00000000E+00  0.00000000E+00
  0.00000000E+00  0.00000000E+00  0.00000000E+00
  0.00000000E+00  0.00000000E+00  0.00000000E+00
  0.00000000E+00  0.00000000E+00  0.00000000E+00
  0.00000000E+00  0.00000000E+00  0.00000000E+00
  0.00000000E+00  0.00000000E+00  0.00000000E+00
  0.00000000E+00  0.00000000E+00  0.00000000E+00
  0.00000000E+00  0.00000000E+00  0.00000000E+00
  0.00000000E+00  0.00000000E+00  0.00000000E+00
  0.00000000E+00  0.00000000E+00  0.00000000E+00
  0.00000000E+00  0.00000000E+00  0.00000000E+00
  0.00000000E+00  0.00000000E+00  0.00000000E+00
  0.00000000E+00  0.00000000E+00  0.00000000E+00
  0.00000000E+00  0.00000000E+00  0.00000000E+00
  0.00000000E+00  0.00000000E+00  0.00000000E+00
  0.00000000E+00  0.00000000E+00  0.00000000E+00
  0.00000000E+00  0.00000000E+00  0.00000000E+00
  0.00000000E+00  0.00000000E+00  0.00000000E+00
  0.00000000E+00  0.00000000E+00  0.00000000E+00
  0.00000000E+00  0.00000000E+00  0.00000000E+00
  0.00000000E+00  0.00000000E+00  0.00000000E+00
  0.00000000E+00  0.00000000E+00  0.00000000E+00
  0.00000000E+00  0.00000000E+00  0.00000000E+00
  0.00000000E+00  0.00000000E+00  0.00000000E+00
  0.00000000E+00  0.00000000E+00  0.00000000E+00
  0.00000000E+00  0.00000000E+00  0.00000000E+00
  0.00000000E+00  0.00000000E+00  0.00000000E+00
  0.00000000E+00  0.00000000E+00  0.00000000E+00
  0.00000000E+00  0.00000000E+00  0.00000000E+00
  0.00000000E+00  0.00000000E+00  0.00000000E+00
  0.00000000E+00  0.00000000E+00  0.00000000E+00
  0.00000000E+00  0.00000000E+00  0.00000000E+00
