HfO2\(1\1\1)                            
   1.00000000000000     
     7.2580867537545313    0.0000000000000000    0.0000000000000000
    -2.9176513437128464    5.9449039603802909    0.0000000000000000
     0.0000000000000000    0.0000000000000000   41.9704017639000000
   Hf   O 
    16    32
Direct
  0.3060303879469615  0.6801039888515987  0.3837952690283686
  0.9240064144458771  0.9807656963130782  0.4597162943059985
  0.5515636055361171  0.2860807346924545  0.5360356624000744
  0.1765206948415710  0.5781725943507396  0.6096837256977636
  0.7481766250166402  0.6352922924930127  0.3926703089249841
  0.3734452157358916  0.9387197052351652  0.4706508855933222
  0.9961221063716508  0.2383867328832139  0.5464509831477571
  0.6201710171050863  0.5349998049807922  0.6224612277230648
  0.1956011804955295  0.1212620892410925  0.3903178953254098
  0.8204871286474997  0.4132708358845463  0.4639672701545692
  0.4480223968167962  0.7185820509187408  0.5402867216998928
  0.0660651196780861  0.0193089830958257  0.6162026515809274
  0.7519409807346733  0.1644681764998168  0.3775415944929037
  0.3759150919560454  0.4609474560255507  0.4535475437247030
  0.9985754797639004  0.7606114713292342  0.5293472035888627
  0.6239485045951554  0.0641808833799615  0.6073344499657125
  0.0872361032563660  0.3436939748115435  0.3709947161771083
  0.7101970590632760  0.6518142518984504  0.4459462761784962
  0.3332490929146132  0.9551058090314513  0.5220254969202287
  0.9539684643569331  0.2567176378965073  0.5971311198453435
  0.6071595885247376  0.7995295151312760  0.3672511058641916
  0.2358079804104136  0.0966917265778093  0.4400681859240194
  0.8614345494136728  0.4001891709070406  0.5169367896242960
  0.4805893337328513  0.7023601729836244  0.5917967036027179
  0.4181314502718863  0.4427134658949541  0.4028722844693036
  0.0387618859293681  0.7442175075844375  0.4779727081021790
  0.6618304453156298  0.0475640893567473  0.5540462959958958
  0.2848951481509800  0.3557445106702133  0.6290082257234246
  0.8915007532805177  0.9970789361026107  0.4082033213859546
  0.5106141505978741  0.2991161327434142  0.4830554096461412
  0.1362304457808037  0.6026497890391909  0.5599287289370025
  0.7649133217039363  0.8999152105370598  0.6327532871825028
  0.4301992779331556  0.0408549732514842  0.3788748573983938
  0.0636764721264385  0.3375911531092939  0.4580591778153718
  0.6884724197539356  0.6420452805999233  0.5334996625277171
  0.3112553190393541  0.9339290932362942  0.6158034563519621
  0.7671428323347840  0.3516662216960498  0.4161327082696786
  0.3963563442880584  0.6627357724196798  0.4915171001390704
  0.0273052792028352  0.9623802342344518  0.5686899612549183
  0.6376396319740394  0.2707319263799945  0.6440661107019068
  0.0608826327949643  0.7655790064757326  0.3841690944206633
  0.6835361165898775  0.0572665840433544  0.4664936079190198
  0.3083781028854347  0.3617023082571507  0.5419627899916293
  0.9419495468166090  0.6586347724047172  0.6211256318971721
  0.7345238045772859  0.4287651941806772  0.3559408159408264
  0.3446385426675604  0.7369206644071156  0.4313075838131795
  0.9757134638519531  0.0366095428435287  0.5084873984363796
  0.6050184475871916  0.3477818924911347  0.5838697895472293
 
  0.00000000E+00  0.00000000E+00  0.00000000E+00
  0.00000000E+00  0.00000000E+00  0.00000000E+00
  0.00000000E+00  0.00000000E+00  0.00000000E+00
  0.00000000E+00  0.00000000E+00  0.00000000E+00
  0.00000000E+00  0.00000000E+00  0.00000000E+00
  0.00000000E+00  0.00000000E+00  0.00000000E+00
  0.00000000E+00  0.00000000E+00  0.00000000E+00
  0.00000000E+00  0.00000000E+00  0.00000000E+00
  0.00000000E+00  0.00000000E+00  0.00000000E+00
  0.00000000E+00  0.00000000E+00  0.00000000E+00
  0.00000000E+00  0.00000000E+00  0.00000000E+00
  0.00000000E+00  0.00000000E+00  0.00000000E+00
  0.00000000E+00  0.00000000E+00  0.00000000E+00
  0.00000000E+00  0.00000000E+00  0.00000000E+00
  0.00000000E+00  0.00000000E+00  0.00000000E+00
  0.00000000E+00  0.00000000E+00  0.00000000E+00
  0.00000000E+00  0.00000000E+00  0.00000000E+00
  0.00000000E+00  0.00000000E+00  0.00000000E+00
  0.00000000E+00  0.00000000E+00  0.00000000E+00
  0.00000000E+00  0.00000000E+00  0.00000000E+00
  0.00000000E+00  0.00000000E+00  0.00000000E+00
  0.00000000E+00  0.00000000E+00  0.00000000E+00
  0.00000000E+00  0.00000000E+00  0.00000000E+00
  0.00000000E+00  0.00000000E+00  0.00000000E+00
  0.00000000E+00  0.00000000E+00  0.00000000E+00
  0.00000000E+00  0.00000000E+00  0.00000000E+00
  0.00000000E+00  0.00000000E+00  0.00000000E+00
  0.00000000E+00  0.00000000E+00  0.00000000E+00
  0.00000000E+00  0.00000000E+00  0.00000000E+00
  0.00000000E+00  0.00000000E+00  0.00000000E+00
  0.00000000E+00  0.00000000E+00  0.00000000E+00
  0.00000000E+00  0.00000000E+00  0.00000000E+00
  0.00000000E+00  0.00000000E+00  0.00000000E+00
  0.00000000E+00  0.00000000E+00  0.00000000E+00
  0.00000000E+00  0.00000000E+00  0.00000000E+00
  0.00000000E+00  0.00000000E+00  0.00000000E+00
  0.00000000E+00  0.00000000E+00  0.00000000E+00
  0.00000000E+00  0.00000000E+00  0.00000000E+00
  0.00000000E+00  0.00000000E+00  0.00000000E+00
  0.00000000E+00  0.00000000E+00  0.00000000E+00
  0.00000000E+00  0.00000000E+00  0.00000000E+00
  0.00000000E+00  0.00000000E+00  0.00000000E+00
  0.00000000E+00  0.00000000E+00  0.00000000E+00
  0.00000000E+00  0.00000000E+00  0.00000000E+00
  0.00000000E+00  0.00000000E+00  0.00000000E+00
  0.00000000E+00  0.00000000E+00  0.00000000E+00
  0.00000000E+00  0.00000000E+00  0.00000000E+00
  0.00000000E+00  0.00000000E+00  0.00000000E+00
