CONTCAR\(1\1\1)                         
   1.00000000000000     
     5.6764402735028083    0.0000000000000000    0.0000000000000000
     0.0000000000000000    9.7466912577854803    0.0000000000000000
     0.0000000000000000    0.0000000000000000   27.0939006804999991
   Au
    32
Direct
 -0.0000000000000000 -0.0000303459184133  0.3633134365326523
  0.4999999999395754  0.4999696541114934  0.3633134365326523
  0.4999999999395754  0.1657995522936219  0.4554883308858804
  0.0000000000000000  0.6657995821272580  0.4554883308858804
 -0.0000000000000000  0.3342004477362848  0.5445116989178773
  0.4999999999395754  0.8342004178627731  0.5445116989178773
 -0.0000000000000000  0.0000303459184133  0.6366865336635900
  0.4999999999395754  0.5000303459483197  0.6366865336635900
  0.7500000000820108  0.2499696540965366  0.3633134365326523
  0.2499999999697877  0.7499696541264436  0.3633134365326523
  0.2499999999697877  0.4157995523085717  0.4554883308858804
  0.7500000000820108  0.9157995821422078  0.4554883308858804
  0.2499999999697877  0.0842004402454805  0.5445116989178773
  0.7500000000820108  0.5842004179474982  0.5445116989178773
  0.7500000000820108  0.2500303459333632  0.6366865336635900
  0.2499999999697877  0.7500303459632696  0.6366865336635900
  0.2499999999697877  0.2499696540965366  0.3633134365326523
  0.7500000000820108  0.7499696541264436  0.3633134365326523
  0.7500000000820108  0.4157995523085717  0.4554883308858804
  0.2499999999697877  0.9157995821422078  0.4554883308858804
  0.7500000000820108  0.0842004402454805  0.5445116989178773
  0.2499999999697877  0.5842004179474982  0.5445116989178773
  0.2499999999697877  0.2500303459333632  0.6366865336635900
  0.7500000000820108  0.7500303459632696  0.6366865336635900
  0.4999999999395754 -0.0000303459184133  0.3633134365326523
  0.0000000000000000  0.4999696541114934  0.3633134365326523
 -0.0000000000000000  0.1657995522936219  0.4554883308858804
  0.4999999999395754  0.6657995821272580  0.4554883308858804
  0.4999999999395754  0.3342004477362848  0.5445116989178773
  0.0000000000000000  0.8342004178627731  0.5445116989178773
  0.4999999999395754  0.0000303459184133  0.6366865336635900
  0.0000000000000000  0.5000303459483197  0.6366865336635900
 
  0.00000000E+00  0.00000000E+00  0.00000000E+00
  0.00000000E+00  0.00000000E+00  0.00000000E+00
  0.00000000E+00  0.00000000E+00  0.00000000E+00
  0.00000000E+00  0.00000000E+00  0.00000000E+00
  0.00000000E+00  0.00000000E+00  0.00000000E+00
  0.00000000E+00  0.00000000E+00  0.00000000E+00
  0.00000000E+00  0.00000000E+00  0.00000000E+00
  0.00000000E+00  0.00000000E+00  0.00000000E+00
  0.00000000E+00  0.00000000E+00  0.00000000E+00
  0.00000000E+00  0.00000000E+00  0.00000000E+00
  0.00000000E+00  0.00000000E+00  0.00000000E+00
  0.00000000E+00  0.00000000E+00  0.00000000E+00
  0.00000000E+00  0.00000000E+00  0.00000000E+00
  0.00000000E+00  0.00000000E+00  0.00000000E+00
  0.00000000E+00  0.00000000E+00  0.00000000E+00
  0.00000000E+00  0.00000000E+00  0.00000000E+00
  0.00000000E+00  0.00000000E+00  0.00000000E+00
  0.00000000E+00  0.00000000E+00  0.00000000E+00
  0.00000000E+00  0.00000000E+00  0.00000000E+00
  0.00000000E+00  0.00000000E+00  0.00000000E+00
  0.00000000E+00  0.00000000E+00  0.00000000E+00
  0.00000000E+00  0.00000000E+00  0.00000000E+00
  0.00000000E+00  0.00000000E+00  0.00000000E+00
  0.00000000E+00  0.00000000E+00  0.00000000E+00
  0.00000000E+00  0.00000000E+00  0.00000000E+00
  0.00000000E+00  0.00000000E+00  0.00000000E+00
  0.00000000E+00  0.00000000E+00  0.00000000E+00
  0.00000000E+00  0.00000000E+00  0.00000000E+00
  0.00000000E+00  0.00000000E+00  0.00000000E+00
  0.00000000E+00  0.00000000E+00  0.00000000E+00
  0.00000000E+00  0.00000000E+00  0.00000000E+00
  0.00000000E+00  0.00000000E+00  0.00000000E+00
