CONTCAR\(2)\(1\1\1)                     
   1.00000000000000     
     5.7417881669045157    0.0000000000000000    0.0000000000000000
     0.0000000000000000    9.8011692864800661    0.0000000000000000
     0.0000000000000000    0.0000000000000000   27.0505008698000005
   Ag
    32
Direct
 -0.0000000000000000 -0.0002896843405400  0.3674607118821971
  0.4999999999218332  0.4997103156644765  0.3674607118821971
  0.4999999999218332  0.1665035382239505  0.4562627830516757
 -0.0000000000000000  0.6665035681159365  0.4562627830516757
 -0.0000000000000000  0.3334964617810659  0.5437371871595945
  0.4999999999218332  0.8334964318991057  0.5437371871595945
  0.0000000000000000  0.0002896843405400  0.6325392881251997
  0.4999999999218332  0.5002896843455565  0.6325392881251997
  0.7499999999696030  0.2497103156118181  0.3674607118821971
  0.2500000000477698  0.7497103156168344  0.3674607118821971
  0.2500000000477698  0.4165035382766017  0.4562627830516757
  0.7499999999696030  0.9165035680683017  0.4562627830516757
  0.2500000000477698  0.0834964543068100  0.5437371871595945
  0.7499999999696030  0.5834964319467476  0.5437371871595945
  0.7499999999696030  0.2502896842928981  0.6325392881251997
  0.2500000000477698  0.7502896842979146  0.6325392881251997
  0.2500000000477698  0.2497103156118181  0.3674607118821971
  0.7499999999696030  0.7497103156168344  0.3674607118821971
  0.7499999999696030  0.4165035382766017  0.4562627830516757
  0.2500000000477698  0.9165035680683017  0.4562627830516757
  0.7499999999696030  0.0834964543068100  0.5437371871595945
  0.2500000000477698  0.5834964319467476  0.5437371871595945
  0.2500000000477698  0.2502896842928981  0.6325392881251997
  0.7499999999696030  0.7502896842979146  0.6325392881251997
  0.4999999999218332 -0.0002896843405400  0.3674607118821971
 -0.0000000000000000  0.4997103156644765  0.3674607118821971
 -0.0000000000000000  0.1665035382239505  0.4562627830516757
  0.4999999999218332  0.6665035681159365  0.4562627830516757
  0.4999999999218332  0.3334964617810659  0.5437371871595945
  0.0000000000000000  0.8334964318991057  0.5437371871595945
  0.4999999999218332  0.0002896843405400  0.6325392881251997
 -0.0000000000000000  0.5002896843455565  0.6325392881251997
 
  0.00000000E+00  0.00000000E+00  0.00000000E+00
  0.00000000E+00  0.00000000E+00  0.00000000E+00
  0.00000000E+00  0.00000000E+00  0.00000000E+00
  0.00000000E+00  0.00000000E+00  0.00000000E+00
  0.00000000E+00  0.00000000E+00  0.00000000E+00
  0.00000000E+00  0.00000000E+00  0.00000000E+00
  0.00000000E+00  0.00000000E+00  0.00000000E+00
  0.00000000E+00  0.00000000E+00  0.00000000E+00
  0.00000000E+00  0.00000000E+00  0.00000000E+00
  0.00000000E+00  0.00000000E+00  0.00000000E+00
  0.00000000E+00  0.00000000E+00  0.00000000E+00
  0.00000000E+00  0.00000000E+00  0.00000000E+00
  0.00000000E+00  0.00000000E+00  0.00000000E+00
  0.00000000E+00  0.00000000E+00  0.00000000E+00
  0.00000000E+00  0.00000000E+00  0.00000000E+00
  0.00000000E+00  0.00000000E+00  0.00000000E+00
  0.00000000E+00  0.00000000E+00  0.00000000E+00
  0.00000000E+00  0.00000000E+00  0.00000000E+00
  0.00000000E+00  0.00000000E+00  0.00000000E+00
  0.00000000E+00  0.00000000E+00  0.00000000E+00
  0.00000000E+00  0.00000000E+00  0.00000000E+00
  0.00000000E+00  0.00000000E+00  0.00000000E+00
  0.00000000E+00  0.00000000E+00  0.00000000E+00
  0.00000000E+00  0.00000000E+00  0.00000000E+00
  0.00000000E+00  0.00000000E+00  0.00000000E+00
  0.00000000E+00  0.00000000E+00  0.00000000E+00
  0.00000000E+00  0.00000000E+00  0.00000000E+00
  0.00000000E+00  0.00000000E+00  0.00000000E+00
  0.00000000E+00  0.00000000E+00  0.00000000E+00
  0.00000000E+00  0.00000000E+00  0.00000000E+00
  0.00000000E+00  0.00000000E+00  0.00000000E+00
  0.00000000E+00  0.00000000E+00  0.00000000E+00
