CONTCAR\(4)\(1\1\1)                     
   1.00000000000000     
     4.8667163855571287    0.0000000000000000    0.0000000000000000
     0.0000000000000000    8.4189698115437608    0.0000000000000000
     0.0000000000000000    0.0000000000000000   26.0198993682999991
   Ni
    32
Direct
  0.0000000000000000 -0.0000297002954660  0.3833424281631023
  0.4999999999593143  0.4999702997280245  0.3833424281631023
  0.4999999999593143  0.1666603914178214  0.4611466886158338
 -0.0000000000000000  0.6666604211588170  0.4611466886158338
 -0.0000000000000000  0.3333396086056692  0.5388532815493081
  0.4999999999593143  0.8333395787941948  0.5388532815493081
  0.0000000000000000  0.0000297002954660  0.6166575420404729
  0.4999999999593143  0.5000297003189565  0.6166575420404729
  0.7499999999389644  0.2499702996575529  0.3833424281631023
  0.2499999999796572  0.7499702996810435  0.3833424281631023
  0.2499999999796572  0.4166603913708332  0.4611466886158338
  0.7499999999389644  0.9166604212292957  0.4611466886158338
  0.2499999999796572  0.0833396011351862  0.5388532815493081
  0.7499999999389644  0.5833395788411830  0.5388532815493081
  0.7499999999389644  0.2500297002484850  0.6166575420404729
  0.2499999999796572  0.7500297002719755  0.6166575420404729
  0.2499999999796572  0.2499702996575529  0.3833424281631023
  0.7499999999389644  0.7499702996810435  0.3833424281631023
  0.7499999999389644  0.4166603913708332  0.4611466886158338
  0.2499999999796572  0.9166604212292957  0.4611466886158338
  0.7499999999389644  0.0833396011351862  0.5388532815493081
  0.2499999999796572  0.5833395788411830  0.5388532815493081
  0.2499999999796572  0.2500297002484850  0.6166575420404729
  0.7499999999389644  0.7500297002719755  0.6166575420404729
  0.4999999999593143 -0.0000297002954660  0.3833424281631023
  0.0000000000000000  0.4999702997280245  0.3833424281631023
 -0.0000000000000000  0.1666603914178214  0.4611466886158338
  0.4999999999593143  0.6666604211588170  0.4611466886158338
  0.4999999999593143  0.3333396086056692  0.5388532815493081
  0.0000000000000000  0.8333395787941948  0.5388532815493081
  0.4999999999593143  0.0000297002954660  0.6166575420404729
 -0.0000000000000000  0.5000297003189565  0.6166575420404729
 
  0.00000000E+00  0.00000000E+00  0.00000000E+00
  0.00000000E+00  0.00000000E+00  0.00000000E+00
  0.00000000E+00  0.00000000E+00  0.00000000E+00
  0.00000000E+00  0.00000000E+00  0.00000000E+00
  0.00000000E+00  0.00000000E+00  0.00000000E+00
  0.00000000E+00  0.00000000E+00  0.00000000E+00
  0.00000000E+00  0.00000000E+00  0.00000000E+00
  0.00000000E+00  0.00000000E+00  0.00000000E+00
  0.00000000E+00  0.00000000E+00  0.00000000E+00
  0.00000000E+00  0.00000000E+00  0.00000000E+00
  0.00000000E+00  0.00000000E+00  0.00000000E+00
  0.00000000E+00  0.00000000E+00  0.00000000E+00
  0.00000000E+00  0.00000000E+00  0.00000000E+00
  0.00000000E+00  0.00000000E+00  0.00000000E+00
  0.00000000E+00  0.00000000E+00  0.00000000E+00
  0.00000000E+00  0.00000000E+00  0.00000000E+00
  0.00000000E+00  0.00000000E+00  0.00000000E+00
  0.00000000E+00  0.00000000E+00  0.00000000E+00
  0.00000000E+00  0.00000000E+00  0.00000000E+00
  0.00000000E+00  0.00000000E+00  0.00000000E+00
  0.00000000E+00  0.00000000E+00  0.00000000E+00
  0.00000000E+00  0.00000000E+00  0.00000000E+00
  0.00000000E+00  0.00000000E+00  0.00000000E+00
  0.00000000E+00  0.00000000E+00  0.00000000E+00
  0.00000000E+00  0.00000000E+00  0.00000000E+00
  0.00000000E+00  0.00000000E+00  0.00000000E+00
  0.00000000E+00  0.00000000E+00  0.00000000E+00
  0.00000000E+00  0.00000000E+00  0.00000000E+00
  0.00000000E+00  0.00000000E+00  0.00000000E+00
  0.00000000E+00  0.00000000E+00  0.00000000E+00
  0.00000000E+00  0.00000000E+00  0.00000000E+00
  0.00000000E+00  0.00000000E+00  0.00000000E+00
