ZrO2\(1\1\1)\(0\0\1)                    
   1.00000000000000     
     7.3348647092074017    0.0000000000000000    0.0000000000000000
    -2.9426794057678576    6.0038008758193744    0.0000000000000000
     0.0000000000000000    0.0000000000000000   42.0868988037000022
   Zr   O 
    16    32
Direct
  0.3186198716784929  0.1298717102867144  0.3911573313325363
  0.9453796300554700  0.4367605238162966  0.4705429206104554
  0.5682307755556195  0.7372737717312745  0.5465994455477201
  0.1945988465585913  0.0324795216245732  0.6236718063672129
  0.7655185065394221  0.6169031508826066  0.3895611329898898
  0.3914090007237192  0.9111342417305153  0.4634834684445792
  0.0202435923300825  0.2181081640397124  0.5408081483004139
  0.6384854055983595  0.5187398749427885  0.6166250080931945
  0.8755752402758148  0.1752070031683957  0.3833776038604810
  0.4937644200323064  0.4757374115004680  0.4591878092317003
  0.1225826693819059  0.7827118581303054  0.5365201036448255
  0.7485711626851597  0.0770474139262873  0.6104363132286608
  0.3194910622487939  0.6615145021592284  0.3763201129837412
  0.9457425773820702  0.9565729408821824  0.4533988998645313
  0.5686160880321012  0.2570933551048995  0.5294600910875644
  0.1954722021279593  0.5640803929368161  0.6088418848101114
  0.3052130912305415  0.9243725221885910  0.3549283577973483
  0.9155869021619409  0.2341492810962862  0.4310746396514489
  0.5466305961852953  0.5343607245128723  0.5084459464419311
  0.1776559972558900  0.8477713371904372  0.5847124518792413
  0.9981798233084760  0.5340480957920022  0.3776869551850268
  0.6335928243557305  0.8348208949372236  0.4575115918459076
  0.2594141146216913  0.1398700354624012  0.5338399771474229
  0.8822360046761730  0.4325957762720520  0.6161913646029973
  0.9874893638018492  0.9386319297182908  0.4025706096555624
  0.6090155820398806  0.2408378114532255  0.4779350584977990
  0.2325303810539836  0.5460546694121859  0.5546247975934406
  0.8534174966613080  0.8564362886033763  0.6308208645680793
  0.4615904168336726  0.4932855713113469  0.4071214206382550
  0.0825872685244704  0.7964157550637836  0.4828729163738856
  0.7088998811665164  0.1009142039985917  0.5600473574612721
  0.3395875841108307  0.4010093748044383  0.6341916118844964
  0.1744722549254050  0.2928716446254498  0.3658183692950701
  0.8050828461353063  0.5928747857263517  0.4399423940029834
  0.4312483913829084  0.8973657332279643  0.5171247960355387
  0.0524558399731490  0.2007407135901360  0.5928799349949188
  0.6607661157582783  0.8375657380483972  0.3691684255077874
  0.2815023446546618  0.1478475536497044  0.4453868400396956
  0.9050497260913488  0.4529696473406730  0.5220781630113294
  0.5265929458200915  0.7552955184263368  0.5974434315589576
  0.6318251116011027  0.2613948473534506  0.3838260014304780
  0.2545725850337277  0.5539968991093644  0.4661608224409193
  0.8804019273389940  0.8590066410953412  0.5425010446083718
  0.5158893739022474  0.1598778035574426  0.6222881371356550
  0.3365938391704049  0.8462895066325018  0.4152779033708711
  0.9674655774655534  0.1595434012144423  0.4915458061083982
  0.5982968245823912  0.4596928422045750  0.5689255128811013
  0.2088559942191210  0.7696266303238559  0.6450644159847130
 
  0.00000000E+00  0.00000000E+00  0.00000000E+00
  0.00000000E+00  0.00000000E+00  0.00000000E+00
  0.00000000E+00  0.00000000E+00  0.00000000E+00
  0.00000000E+00  0.00000000E+00  0.00000000E+00
  0.00000000E+00  0.00000000E+00  0.00000000E+00
  0.00000000E+00  0.00000000E+00  0.00000000E+00
  0.00000000E+00  0.00000000E+00  0.00000000E+00
  0.00000000E+00  0.00000000E+00  0.00000000E+00
  0.00000000E+00  0.00000000E+00  0.00000000E+00
  0.00000000E+00  0.00000000E+00  0.00000000E+00
  0.00000000E+00  0.00000000E+00  0.00000000E+00
  0.00000000E+00  0.00000000E+00  0.00000000E+00
  0.00000000E+00  0.00000000E+00  0.00000000E+00
  0.00000000E+00  0.00000000E+00  0.00000000E+00
  0.00000000E+00  0.00000000E+00  0.00000000E+00
  0.00000000E+00  0.00000000E+00  0.00000000E+00
  0.00000000E+00  0.00000000E+00  0.00000000E+00
  0.00000000E+00  0.00000000E+00  0.00000000E+00
  0.00000000E+00  0.00000000E+00  0.00000000E+00
  0.00000000E+00  0.00000000E+00  0.00000000E+00
  0.00000000E+00  0.00000000E+00  0.00000000E+00
  0.00000000E+00  0.00000000E+00  0.00000000E+00
  0.00000000E+00  0.00000000E+00  0.00000000E+00
  0.00000000E+00  0.00000000E+00  0.00000000E+00
  0.00000000E+00  0.00000000E+00  0.00000000E+00
  0.00000000E+00  0.00000000E+00  0.00000000E+00
  0.00000000E+00  0.00000000E+00  0.00000000E+00
  0.00000000E+00  0.00000000E+00  0.00000000E+00
  0.00000000E+00  0.00000000E+00  0.00000000E+00
  0.00000000E+00  0.00000000E+00  0.00000000E+00
  0.00000000E+00  0.00000000E+00  0.00000000E+00
  0.00000000E+00  0.00000000E+00  0.00000000E+00
  0.00000000E+00  0.00000000E+00  0.00000000E+00
  0.00000000E+00  0.00000000E+00  0.00000000E+00
  0.00000000E+00  0.00000000E+00  0.00000000E+00
  0.00000000E+00  0.00000000E+00  0.00000000E+00
  0.00000000E+00  0.00000000E+00  0.00000000E+00
  0.00000000E+00  0.00000000E+00  0.00000000E+00
  0.00000000E+00  0.00000000E+00  0.00000000E+00
  0.00000000E+00  0.00000000E+00  0.00000000E+00
  0.00000000E+00  0.00000000E+00  0.00000000E+00
  0.00000000E+00  0.00000000E+00  0.00000000E+00
  0.00000000E+00  0.00000000E+00  0.00000000E+00
  0.00000000E+00  0.00000000E+00  0.00000000E+00
  0.00000000E+00  0.00000000E+00  0.00000000E+00
  0.00000000E+00  0.00000000E+00  0.00000000E+00
  0.00000000E+00  0.00000000E+00  0.00000000E+00
  0.00000000E+00  0.00000000E+00  0.00000000E+00
