HfO2\(1\1\1)                            
   1.00000000000000     
     7.2580867537545313    0.0000000000000000    0.0000000000000000
    -2.9176513437128464    5.9449039603802909    0.0000000000000000
     0.0000000000000000    0.0000000000000000   41.9704017639000000
   Hf   O 
    16    32
Direct
  0.3072709454065716  0.6807278762416331  0.3839506185970052
  0.9223097592850280  0.9788225055622561  0.4591540630116242
  0.5510392040220751  0.2854889971591845  0.5362964318235228
  0.1754820507083608  0.5808223755255852  0.6089282392500124
  0.7476115937336729  0.6287333273741780  0.3899752555714002
  0.3741175072489327  0.9388094300320802  0.4709598785008566
  0.9939001680974968  0.2370922731943352  0.5463859075058153
  0.6207397343159187  0.5334625681291669  0.6229370620029400
  0.1965989706696405  0.1186045069201143  0.3910679584695345
  0.8210792789120589  0.4139056328782402  0.4637039526864868
  0.4497800206428053  0.7205529899524024  0.5408396106722222
  0.0647699820881300  0.0186511230199287  0.6160531469964212
  0.7513156712953446  0.1659905969153357  0.3770639474448529
  0.3781830118233458  0.4622478998752158  0.4536142756087713
  0.9980052348286463  0.7605884658849504  0.5290359666550444
  0.6244486049279701  0.0707073322911640  0.6100337674746612
  0.0924577789764029  0.3319853037051033  0.3687398107030759
  0.7097418579112329  0.6498593710972003  0.4460838263310904
  0.3325900368474137  0.9550888965974096  0.5221158969192814
  0.9531039797283754  0.2552829706103381  0.5970387860568067
  0.6048360878201891  0.7998230327374927  0.3659081458075164
  0.2369928487096402  0.0968318845977620  0.4404007797762688
  0.8613366955246917  0.4008828509043454  0.5167345115154944
  0.4804050320637714  0.7045600520862934  0.5919833112656576
  0.4189213733284660  0.4441127998433601  0.4029662368094620
  0.0394721763373909  0.7442786694865120  0.4778825734029439
  0.6623356019022992  0.0495275391035221  0.5539007236680860
  0.2796190698298773  0.3674822706174652  0.6312591313984797
  0.8917251909348565  0.9948662919791005  0.4080170778589292
  0.5107880198438721  0.2985056791117557  0.4832617432460111
  0.1351517621161662  0.6025178359625798  0.5595990672435676
  0.7672184054257585  0.8996072426508377  0.6341020551586709
  0.4276727933345228  0.0362459671027011  0.3785662668762129
  0.0641551766458974  0.3376120380141217  0.4577530532323877
  0.6885860425775263  0.6413443569496167  0.5340408360027098
  0.3093105351586303  0.9320941469402300  0.6174771690380751
  0.7706671311717770  0.3542606854634371  0.4155460342942874
  0.3983585782799821  0.6640179953524310  0.4916385895265520
  0.0287370743450523  0.9624752259849743  0.5687363880108123
  0.6380242905795512  0.2786222497052648  0.6445322479718882
  0.0627433438522544  0.7673291116170233  0.3825279030694375
  0.6834989876408386  0.0580253149378223  0.4659536429505451
  0.3079473356390352  0.3616904187405652  0.5422416935336685
  0.9444149450187069  0.6631855444550681  0.6214409460141752
  0.7339769207404174  0.4208141635420475  0.3554692920992011
  0.3433158150215547  0.7368778874794515  0.4312675647214164
  0.9736900833150912  0.0353375473114355  0.5083561727735741
  0.6013532481875714  0.3450967717286773  0.5844585298107816
 
  0.00000000E+00  0.00000000E+00  0.00000000E+00
  0.00000000E+00  0.00000000E+00  0.00000000E+00
  0.00000000E+00  0.00000000E+00  0.00000000E+00
  0.00000000E+00  0.00000000E+00  0.00000000E+00
  0.00000000E+00  0.00000000E+00  0.00000000E+00
  0.00000000E+00  0.00000000E+00  0.00000000E+00
  0.00000000E+00  0.00000000E+00  0.00000000E+00
  0.00000000E+00  0.00000000E+00  0.00000000E+00
  0.00000000E+00  0.00000000E+00  0.00000000E+00
  0.00000000E+00  0.00000000E+00  0.00000000E+00
  0.00000000E+00  0.00000000E+00  0.00000000E+00
  0.00000000E+00  0.00000000E+00  0.00000000E+00
  0.00000000E+00  0.00000000E+00  0.00000000E+00
  0.00000000E+00  0.00000000E+00  0.00000000E+00
  0.00000000E+00  0.00000000E+00  0.00000000E+00
  0.00000000E+00  0.00000000E+00  0.00000000E+00
  0.00000000E+00  0.00000000E+00  0.00000000E+00
  0.00000000E+00  0.00000000E+00  0.00000000E+00
  0.00000000E+00  0.00000000E+00  0.00000000E+00
  0.00000000E+00  0.00000000E+00  0.00000000E+00
  0.00000000E+00  0.00000000E+00  0.00000000E+00
  0.00000000E+00  0.00000000E+00  0.00000000E+00
  0.00000000E+00  0.00000000E+00  0.00000000E+00
  0.00000000E+00  0.00000000E+00  0.00000000E+00
  0.00000000E+00  0.00000000E+00  0.00000000E+00
  0.00000000E+00  0.00000000E+00  0.00000000E+00
  0.00000000E+00  0.00000000E+00  0.00000000E+00
  0.00000000E+00  0.00000000E+00  0.00000000E+00
  0.00000000E+00  0.00000000E+00  0.00000000E+00
  0.00000000E+00  0.00000000E+00  0.00000000E+00
  0.00000000E+00  0.00000000E+00  0.00000000E+00
  0.00000000E+00  0.00000000E+00  0.00000000E+00
  0.00000000E+00  0.00000000E+00  0.00000000E+00
  0.00000000E+00  0.00000000E+00  0.00000000E+00
  0.00000000E+00  0.00000000E+00  0.00000000E+00
  0.00000000E+00  0.00000000E+00  0.00000000E+00
  0.00000000E+00  0.00000000E+00  0.00000000E+00
  0.00000000E+00  0.00000000E+00  0.00000000E+00
  0.00000000E+00  0.00000000E+00  0.00000000E+00
  0.00000000E+00  0.00000000E+00  0.00000000E+00
  0.00000000E+00  0.00000000E+00  0.00000000E+00
  0.00000000E+00  0.00000000E+00  0.00000000E+00
  0.00000000E+00  0.00000000E+00  0.00000000E+00
  0.00000000E+00  0.00000000E+00  0.00000000E+00
  0.00000000E+00  0.00000000E+00  0.00000000E+00
  0.00000000E+00  0.00000000E+00  0.00000000E+00
  0.00000000E+00  0.00000000E+00  0.00000000E+00
  0.00000000E+00  0.00000000E+00  0.00000000E+00
