ZrO2\(1\1\1)\(0\0\1)                    
   1.00000000000000     
     7.3348647092074017    0.0000000000000000    0.0000000000000000
    -2.9426794057678576    6.0038008758193744    0.0000000000000000
     0.0000000000000000    0.0000000000000000   42.0868988037000022
   Zr   O 
    16    32
Direct
  0.3177162787238185  0.1265758138562090  0.3894656016130449
  0.9456323346406896  0.4369927076249889  0.4706721237259802
  0.5668890027603343  0.7361047861283003  0.5466509356060295
  0.1943605983312782  0.0320731771791464  0.6237678044502920
  0.7659785042642308  0.6158164903568767  0.3900689157754267
  0.3917293351447099  0.9116609123885374  0.4633711621275599
  0.0214553975410008  0.2192305609798774  0.5410830618405101
  0.6379217747819106  0.5176627053268068  0.6168104269666338
  0.8761300326645588  0.1762950080214908  0.3831938833105405
  0.4925844422880866  0.4746575388799650  0.4589154352848486
  0.1223304507893183  0.7821912214400311  0.5366283719126635
  0.7480951201655819  0.0781273185947240  0.6099286094616424
  0.3197424795173456  0.6619369228055445  0.3762258632433877
  0.9471816999559601  0.9577805377849267  0.4533499914935706
  0.5683772880308169  0.2568767668363420  0.5293287098330135
  0.1963398122936704  0.5673862521815802  0.6105422797035146
  0.3047377923723043  0.9181586884636043  0.3548481981287641
  0.9135838279444878  0.2345239644474584  0.4307679191491436
  0.5454933866172282  0.5333580734649908  0.5085128275947937
  0.1759844034038685  0.8461242319211583  0.5850133667507311
 -0.0043169496471833  0.5326240663708828  0.3772584317629255
  0.6337696013442808  0.8349729440093852  0.4573763671292023
  0.2596394523947583  0.1395265044469088  0.5341106048707411
  0.8819158467428007  0.4315788982622364  0.6179192807060271
  0.9877512426627079  0.9404160966123150  0.4024727692256192
  0.6093242531296905  0.2411177748958935  0.4778850195324892
  0.2331427749311571  0.5471223039346378  0.5545539923377185
  0.8513801651562350  0.8657766852507388  0.6322452471176786
  0.4619943244528346  0.4913994536824548  0.4072237475859026
  0.0825717844654111  0.7961169849089735  0.4829694227242909
  0.7081312513384419  0.1003348337618180  0.5598896083762845
  0.3409861318803601  0.3984827659132545  0.6347566491782201
  0.1730948188816667  0.2955179009272532  0.3652595935459230
  0.8059581864598961  0.5936133620351524  0.4401098145809115
  0.4314833967239426  0.8977557850584459  0.5170307359505004
  0.0520875560367083  0.2025833653297165  0.5927786401337732
  0.6626688989721786  0.8281721473637317  0.3677476668130847
  0.2809177003591427  0.1467464904813574  0.4454416325808410
  0.9047163564474940  0.4527539305951237  0.5221179544308261
  0.5262611992818592  0.7534936520207566  0.5975275180316103
  0.6321085904637201  0.2623794236282057  0.3820904475774144
  0.2543256782387779  0.5542542634254431  0.4658729620781518
  0.8802818359856796  0.8589124828311097  0.5426396675696702
  0.5183464719198015  0.1612605676861905  0.6227231019939240
  0.3380641401415958  0.8477302437288385  0.4149833003525834
  0.9684806145191454  0.1604690429168355  0.4914821536128047
  0.6003483099018965  0.4592721823849836  0.5692369048276076
  0.2093024818325964  0.7758521836609203  0.6451512774296966
 
  0.00000000E+00  0.00000000E+00  0.00000000E+00
  0.00000000E+00  0.00000000E+00  0.00000000E+00
  0.00000000E+00  0.00000000E+00  0.00000000E+00
  0.00000000E+00  0.00000000E+00  0.00000000E+00
  0.00000000E+00  0.00000000E+00  0.00000000E+00
  0.00000000E+00  0.00000000E+00  0.00000000E+00
  0.00000000E+00  0.00000000E+00  0.00000000E+00
  0.00000000E+00  0.00000000E+00  0.00000000E+00
  0.00000000E+00  0.00000000E+00  0.00000000E+00
  0.00000000E+00  0.00000000E+00  0.00000000E+00
  0.00000000E+00  0.00000000E+00  0.00000000E+00
  0.00000000E+00  0.00000000E+00  0.00000000E+00
  0.00000000E+00  0.00000000E+00  0.00000000E+00
  0.00000000E+00  0.00000000E+00  0.00000000E+00
  0.00000000E+00  0.00000000E+00  0.00000000E+00
  0.00000000E+00  0.00000000E+00  0.00000000E+00
  0.00000000E+00  0.00000000E+00  0.00000000E+00
  0.00000000E+00  0.00000000E+00  0.00000000E+00
  0.00000000E+00  0.00000000E+00  0.00000000E+00
  0.00000000E+00  0.00000000E+00  0.00000000E+00
  0.00000000E+00  0.00000000E+00  0.00000000E+00
  0.00000000E+00  0.00000000E+00  0.00000000E+00
  0.00000000E+00  0.00000000E+00  0.00000000E+00
  0.00000000E+00  0.00000000E+00  0.00000000E+00
  0.00000000E+00  0.00000000E+00  0.00000000E+00
  0.00000000E+00  0.00000000E+00  0.00000000E+00
  0.00000000E+00  0.00000000E+00  0.00000000E+00
  0.00000000E+00  0.00000000E+00  0.00000000E+00
  0.00000000E+00  0.00000000E+00  0.00000000E+00
  0.00000000E+00  0.00000000E+00  0.00000000E+00
  0.00000000E+00  0.00000000E+00  0.00000000E+00
  0.00000000E+00  0.00000000E+00  0.00000000E+00
  0.00000000E+00  0.00000000E+00  0.00000000E+00
  0.00000000E+00  0.00000000E+00  0.00000000E+00
  0.00000000E+00  0.00000000E+00  0.00000000E+00
  0.00000000E+00  0.00000000E+00  0.00000000E+00
  0.00000000E+00  0.00000000E+00  0.00000000E+00
  0.00000000E+00  0.00000000E+00  0.00000000E+00
  0.00000000E+00  0.00000000E+00  0.00000000E+00
  0.00000000E+00  0.00000000E+00  0.00000000E+00
  0.00000000E+00  0.00000000E+00  0.00000000E+00
  0.00000000E+00  0.00000000E+00  0.00000000E+00
  0.00000000E+00  0.00000000E+00  0.00000000E+00
  0.00000000E+00  0.00000000E+00  0.00000000E+00
  0.00000000E+00  0.00000000E+00  0.00000000E+00
  0.00000000E+00  0.00000000E+00  0.00000000E+00
  0.00000000E+00  0.00000000E+00  0.00000000E+00
  0.00000000E+00  0.00000000E+00  0.00000000E+00
