Fe  O                                   
   1.00000000000000     
     4.9066644859109516   -0.0648759030342712   -0.0443572409124695
     2.7413472211693048    4.0699607705459284   -0.0443572409120343
     2.7413472211700953    1.4355794280311791    3.8086296674812861
   Fe   O 
     2     6
Direct
  0.0887087710747996  0.0887087710748062  0.0887087710748064
  0.5887087930748015  0.5887087930748078  0.5887087930748082
  0.3389460740708915  0.6761773363476347  0.0011678155066530
  0.0011678155066529  0.3389460740709211  0.6761773363476417
  0.6761773363476562  0.0011678155066308  0.3389460740709063
  0.1761773363476343  0.8389460740709137  0.5011678155066529
  0.8389460740709064  0.5011678155066239  0.1761773363476418
  0.5011678155066527  0.1761773363476495  0.8389460740708993
 
  0.00000000E+00  0.00000000E+00  0.00000000E+00
  0.00000000E+00  0.00000000E+00  0.00000000E+00
  0.00000000E+00  0.00000000E+00  0.00000000E+00
  0.00000000E+00  0.00000000E+00  0.00000000E+00
  0.00000000E+00  0.00000000E+00  0.00000000E+00
  0.00000000E+00  0.00000000E+00  0.00000000E+00
  0.00000000E+00  0.00000000E+00  0.00000000E+00
  0.00000000E+00  0.00000000E+00  0.00000000E+00
