RuO2-110\(2)                            
   1.00000000000000     
     3.1233999729000002    0.0000000000000000    0.0000000000000000
     0.0000000000000000    6.3882999419999997    0.0000000000000000
     0.0000000000000000    0.0000000000000000   40.0000000000000000
   Ru   O 
    10    20
Direct
  0.0000000011071961  0.0001916574282603  0.3573092571525507
  0.0000000008039152  0.5005421702853923  0.4340200461014376
  0.9999999983257197  0.9991016780479995  0.5145737109434378
  0.0000000000353495  0.4998432625119804  0.5953570977303286
  0.9999999984831121  0.9987918084442384  0.6718652128451552
  0.5000000043298272  0.5002022315636339  0.3520852229828790
  0.4999999994773745  0.0006228414862974  0.4351012300300354
  0.4999999992988720  0.4991179668180834  0.5147175411017599
  0.4999999985002717  0.9999195873127888  0.5940430614499661
  0.4999999997940776  0.4987464027181829  0.6771753111135226
  0.0000000031521949  0.5002499429025420  0.3246386529308225
  0.9999999995832667  0.0003531774921228  0.4044279556333592
  0.9999999997907736  0.4995302587631301  0.4832665797359468
  0.9999999985336174  0.9995826091499254  0.5632012165262950
  0.0000000002366534  0.4993028919378801  0.6442373690678238
  0.9999999997554170  0.4988334252961266  0.7046703786521036
  0.0000000026351969  0.5002403729466423  0.3850752524202150
  0.9999999994166089  0.0001451079732817  0.4659443554331943
  0.9999999995092708  0.4994451933518604  0.5461152397849816
  0.9999999986192378  0.9997248659579512  0.6247654646266128
  0.5000000017421016  0.1899915314729981  0.3533216957592700
  0.5000000007842615  0.6940239490495230  0.4343149622031817
  0.4999999987191757  0.1937046841816894  0.5146371656622719
  0.4999999995251372  0.6934477152628773  0.5950220015289247
  0.4999999987088657  0.1886109125587510  0.6758753081856881
  0.5000000010108892  0.8103901665223177  0.3533388858383901
  0.5000000003918501  0.3068839631335720  0.4342834603974737
  0.4999999986298107  0.8047389651494399  0.5146023943220541
  0.5000000000405933  0.3061871102931875  0.5950147051109198
  0.4999999990593764  0.8090334899873213  0.6758392397293704
 
  0.00000000E+00  0.00000000E+00  0.00000000E+00
  0.00000000E+00  0.00000000E+00  0.00000000E+00
  0.00000000E+00  0.00000000E+00  0.00000000E+00
  0.00000000E+00  0.00000000E+00  0.00000000E+00
  0.00000000E+00  0.00000000E+00  0.00000000E+00
  0.00000000E+00  0.00000000E+00  0.00000000E+00
  0.00000000E+00  0.00000000E+00  0.00000000E+00
  0.00000000E+00  0.00000000E+00  0.00000000E+00
  0.00000000E+00  0.00000000E+00  0.00000000E+00
  0.00000000E+00  0.00000000E+00  0.00000000E+00
  0.00000000E+00  0.00000000E+00  0.00000000E+00
  0.00000000E+00  0.00000000E+00  0.00000000E+00
  0.00000000E+00  0.00000000E+00  0.00000000E+00
  0.00000000E+00  0.00000000E+00  0.00000000E+00
  0.00000000E+00  0.00000000E+00  0.00000000E+00
  0.00000000E+00  0.00000000E+00  0.00000000E+00
  0.00000000E+00  0.00000000E+00  0.00000000E+00
  0.00000000E+00  0.00000000E+00  0.00000000E+00
  0.00000000E+00  0.00000000E+00  0.00000000E+00
  0.00000000E+00  0.00000000E+00  0.00000000E+00
  0.00000000E+00  0.00000000E+00  0.00000000E+00
  0.00000000E+00  0.00000000E+00  0.00000000E+00
  0.00000000E+00  0.00000000E+00  0.00000000E+00
  0.00000000E+00  0.00000000E+00  0.00000000E+00
  0.00000000E+00  0.00000000E+00  0.00000000E+00
  0.00000000E+00  0.00000000E+00  0.00000000E+00
  0.00000000E+00  0.00000000E+00  0.00000000E+00
  0.00000000E+00  0.00000000E+00  0.00000000E+00
  0.00000000E+00  0.00000000E+00  0.00000000E+00
  0.00000000E+00  0.00000000E+00  0.00000000E+00
