La2 O3                                  
   1.00000000000000     
     6.2916347117463109    0.0000000000000000    0.0000000000000000
    -3.1458173558731555    5.4487154916227922    0.0000000000000000
    -0.0000000000000000    0.0000000000000000    3.3071826710701751
   La   O 
     2     3
Direct
  0.3333333429999996  0.6666666870000029  0.5001870144062869
  0.6666666870000029  0.3333333429999996  0.4998129855937133
  0.4995503842770240  0.4995503842770628 -0.0000000000000000
  0.5004496157230218  0.0000000000000000  0.0000000000000000
  0.9999999999999614  0.5004496157229371  0.0000000000000000
 
  0.00000000E+00  0.00000000E+00  0.00000000E+00
  0.00000000E+00  0.00000000E+00  0.00000000E+00
  0.00000000E+00  0.00000000E+00  0.00000000E+00
  0.00000000E+00  0.00000000E+00  0.00000000E+00
  0.00000000E+00  0.00000000E+00  0.00000000E+00
