ZrO2\(1\1\1)\(0\0\1)                    
   1.00000000000000     
     7.3348647092074017    0.0000000000000000    0.0000000000000000
    -2.9426794057678576    6.0038008758193744    0.0000000000000000
     0.0000000000000000    0.0000000000000000   42.0868988037000022
   Zr   O 
    16    32
Direct
  0.3186721560228918  0.1292726992996691  0.3909667147701938
  0.9454989514670515  0.4369394613001276  0.4706147076881066
  0.5679574650409691  0.7370120358669539  0.5465379006089393
  0.1947300201587367  0.0318943864480516  0.6237205534805383
  0.7657114734558021  0.6166040153481944  0.3897119829924094
  0.3915812160802972  0.9112705617453187  0.4634774800076968
  0.0204275458733889  0.2182882226118181  0.5408773860335714
  0.6383592689304152  0.5184216540576543  0.6164931755403202
  0.8757180909909579  0.1754853913907581  0.3835065542085587
  0.4935872110162336  0.4755954402997915  0.4591219042806713
  0.1224285010886987  0.7826155410647004  0.5365260994028134
  0.7483833611772042  0.0773224998036355  0.6102859240809195
  0.3193456723432533  0.6620681384008620  0.3762718663324520
  0.9460247300784914  0.9568608255889686  0.4534633376529555
  0.5684942016339960  0.2569216297581036  0.5293876655220799
  0.1954220455484901  0.5647051967000607  0.6090346872735708
  0.3052055848736046  0.9240905376282313  0.3549050255233155
  0.9155419403651877  0.2343057578668777  0.4311617555843554
  0.5461814261134421  0.5339803857884675  0.5083965671796804
  0.1773207570229260  0.8474532976368891  0.5847567970591285
  0.9979833659475261  0.5334211640134328  0.3777049535008317
  0.6337319156487098  0.8349963286077724  0.4575127377024728
  0.2593444377205572  0.1396469909581057  0.5338689618746955
  0.8819732242035769  0.4321774624691486  0.6161509985574867
  0.9875875220016610  0.9389586411616122  0.4026666342272023
  0.6092773915153202  0.2408700963787780  0.4779141040588115
  0.2324683812212243  0.5462158931295136  0.5545627599206000
  0.8526896277792346  0.8575575919677547  0.6310147314679568
  0.4614831448518544  0.4933151578743491  0.4071350222693155
  0.0826575870747490  0.7964774293353614  0.4829372279515098
  0.7087157345658639  0.1007189005392206  0.5599628840852731
  0.3397911168184748  0.4011478230747656  0.6343147998776999
  0.1742729194018651  0.2927042270493985  0.3656829185822303
  0.8052621261006863  0.5930887321991065  0.4400302637935596
  0.4312177242428135  0.8973222181024028  0.5170663227037267
  0.0525543122800372  0.2007201547105666  0.5928608378531166
  0.6615477834102137  0.8363954777882796  0.3689600763337282
  0.2815255561678001  0.1477196240701275  0.4454533428078236
  0.9047808799733232  0.4529550998726606  0.5220997634892868
  0.5265030300561904  0.7549579157190038  0.5973465266268576
  0.6320767929220636  0.2617625042966054  0.3838620110217263
  0.2546323059443054  0.5542370008376878  0.4661304257723557
  0.8802352324608407  0.8588378276357318  0.5424935703757754
  0.5161292348947129  0.1604995850471767  0.6222913570853308
  0.3369449196851591  0.8466535816931824  0.4152336168159820
  0.9679000626969341  0.1599366140961038  0.4915965799576725
  0.5983143075641095  0.4595016778527921  0.5688381579648549
  0.2088078208169577  0.7698666157203746  0.6450903281283260
 
  0.00000000E+00  0.00000000E+00  0.00000000E+00
  0.00000000E+00  0.00000000E+00  0.00000000E+00
  0.00000000E+00  0.00000000E+00  0.00000000E+00
  0.00000000E+00  0.00000000E+00  0.00000000E+00
  0.00000000E+00  0.00000000E+00  0.00000000E+00
  0.00000000E+00  0.00000000E+00  0.00000000E+00
  0.00000000E+00  0.00000000E+00  0.00000000E+00
  0.00000000E+00  0.00000000E+00  0.00000000E+00
  0.00000000E+00  0.00000000E+00  0.00000000E+00
  0.00000000E+00  0.00000000E+00  0.00000000E+00
  0.00000000E+00  0.00000000E+00  0.00000000E+00
  0.00000000E+00  0.00000000E+00  0.00000000E+00
  0.00000000E+00  0.00000000E+00  0.00000000E+00
  0.00000000E+00  0.00000000E+00  0.00000000E+00
  0.00000000E+00  0.00000000E+00  0.00000000E+00
  0.00000000E+00  0.00000000E+00  0.00000000E+00
  0.00000000E+00  0.00000000E+00  0.00000000E+00
  0.00000000E+00  0.00000000E+00  0.00000000E+00
  0.00000000E+00  0.00000000E+00  0.00000000E+00
  0.00000000E+00  0.00000000E+00  0.00000000E+00
  0.00000000E+00  0.00000000E+00  0.00000000E+00
  0.00000000E+00  0.00000000E+00  0.00000000E+00
  0.00000000E+00  0.00000000E+00  0.00000000E+00
  0.00000000E+00  0.00000000E+00  0.00000000E+00
  0.00000000E+00  0.00000000E+00  0.00000000E+00
  0.00000000E+00  0.00000000E+00  0.00000000E+00
  0.00000000E+00  0.00000000E+00  0.00000000E+00
  0.00000000E+00  0.00000000E+00  0.00000000E+00
  0.00000000E+00  0.00000000E+00  0.00000000E+00
  0.00000000E+00  0.00000000E+00  0.00000000E+00
  0.00000000E+00  0.00000000E+00  0.00000000E+00
  0.00000000E+00  0.00000000E+00  0.00000000E+00
  0.00000000E+00  0.00000000E+00  0.00000000E+00
  0.00000000E+00  0.00000000E+00  0.00000000E+00
  0.00000000E+00  0.00000000E+00  0.00000000E+00
  0.00000000E+00  0.00000000E+00  0.00000000E+00
  0.00000000E+00  0.00000000E+00  0.00000000E+00
  0.00000000E+00  0.00000000E+00  0.00000000E+00
  0.00000000E+00  0.00000000E+00  0.00000000E+00
  0.00000000E+00  0.00000000E+00  0.00000000E+00
  0.00000000E+00  0.00000000E+00  0.00000000E+00
  0.00000000E+00  0.00000000E+00  0.00000000E+00
  0.00000000E+00  0.00000000E+00  0.00000000E+00
  0.00000000E+00  0.00000000E+00  0.00000000E+00
  0.00000000E+00  0.00000000E+00  0.00000000E+00
  0.00000000E+00  0.00000000E+00  0.00000000E+00
  0.00000000E+00  0.00000000E+00  0.00000000E+00
  0.00000000E+00  0.00000000E+00  0.00000000E+00
