HfO2\(1\1\1)                            
   1.00000000000000     
     7.2580867537545313    0.0000000000000000    0.0000000000000000
    -2.9176513437128464    5.9449039603802909    0.0000000000000000
     0.0000000000000000    0.0000000000000000   41.9704017639000000
   Hf   O 
    16    32
Direct
  0.3060472405647374  0.6808934038992049  0.3841370667998234
  0.9231317216291046  0.9802300197730318  0.4594555020437170
  0.5515999163002689  0.2856788911502548  0.5361224099976170
  0.1767335098419025  0.5790873075671570  0.6093058637279540
  0.7475383656760570  0.6330738850482049  0.3918384608777714
  0.3735880784187344  0.9390482572074035  0.4708467473967559
  0.9955930074807782  0.2377709099051231  0.5463335434875702
  0.6214205064895779  0.5326205584386940  0.6227176437419288
  0.1953839734286547  0.1203600208644957  0.3906869721785569
  0.8204670757397210  0.4136581107078712  0.4638787041192458
  0.4489192122016803  0.7191393877415138  0.5405440267320643
  0.0660572292567423  0.0185441859278441  0.6158635030677715
  0.7507065613692561  0.1668306690243568  0.3772789862329944
  0.3764673773559011  0.4616052174975351  0.4536661176680639
  0.9984350531373636  0.7603254107068906  0.5291560963054138
  0.6245855806569125  0.0663842391110592  0.6081691061002914
  0.0892136821633827  0.3410963630719124  0.3702561792263808
  0.7099366373671927  0.6513756606528958  0.4460311975253646
  0.3330601803668074  0.9552044439483325  0.5221048647134197
  0.9542180140861802  0.2560679818330982  0.5969241410948314
  0.6059016291285531  0.7988838537718337  0.3666098666705153
  0.2359339676530681  0.0969846147946427  0.4402665499981779
  0.8614445678356688  0.4002491697669015  0.5168264461161840
  0.4816180379912751  0.7021521381152738  0.5919045996991557
  0.4178739302603489  0.4433443478978703  0.4030701415731102
  0.0389532801152228  0.7441432877012915  0.4778956011672051
  0.6621305800957771  0.0479989812328299  0.5539552221895718
  0.2828216780947486  0.3584001688921816  0.6297482971778265
  0.8905092751829855  0.9973038426746328  0.4080929856684890
  0.5106347881745492  0.2991285014606575  0.4831741103514631
  0.1361918499979495  0.6023896985777455  0.5597269245733898
  0.7662268946263779  0.9005597340235738  0.6333939830522084
  0.4287074016908434  0.0383646577673247  0.3788289463008141
  0.0635830928731380  0.3379654889789450  0.4578981802869038
  0.6885290239083659  0.6415159832307538  0.5335632197747486
  0.3107020636191891  0.9328809755228775  0.6155000787665799
  0.7670644503263944  0.3521099230447149  0.4159769400403661
  0.3965996898578155  0.6631200145140141  0.4916719889312517
  0.0267808471210316  0.9617434601756827  0.5684653328877545
  0.6380129941548063  0.2713161351577682  0.6442645246925878
  0.0614288462333477  0.7665757743636235  0.3845026314973481
  0.6834704262497695  0.0578003917679197  0.4664255431147240
  0.3084640626379169  0.3612535429709851  0.5421236995651171
  0.9433936046329521  0.6610512225432075  0.6211665457791113
  0.7340084288775302  0.4281108913023033  0.3557377305065899
  0.3451338716107699  0.7375327707872970  0.4315407057819272
  0.9754690927595462  0.0362503442264952  0.5083282427903626
  0.6051086575739362  0.3473251780314826  0.5840239173672188
 
  0.00000000E+00  0.00000000E+00  0.00000000E+00
  0.00000000E+00  0.00000000E+00  0.00000000E+00
  0.00000000E+00  0.00000000E+00  0.00000000E+00
  0.00000000E+00  0.00000000E+00  0.00000000E+00
  0.00000000E+00  0.00000000E+00  0.00000000E+00
  0.00000000E+00  0.00000000E+00  0.00000000E+00
  0.00000000E+00  0.00000000E+00  0.00000000E+00
  0.00000000E+00  0.00000000E+00  0.00000000E+00
  0.00000000E+00  0.00000000E+00  0.00000000E+00
  0.00000000E+00  0.00000000E+00  0.00000000E+00
  0.00000000E+00  0.00000000E+00  0.00000000E+00
  0.00000000E+00  0.00000000E+00  0.00000000E+00
  0.00000000E+00  0.00000000E+00  0.00000000E+00
  0.00000000E+00  0.00000000E+00  0.00000000E+00
  0.00000000E+00  0.00000000E+00  0.00000000E+00
  0.00000000E+00  0.00000000E+00  0.00000000E+00
  0.00000000E+00  0.00000000E+00  0.00000000E+00
  0.00000000E+00  0.00000000E+00  0.00000000E+00
  0.00000000E+00  0.00000000E+00  0.00000000E+00
  0.00000000E+00  0.00000000E+00  0.00000000E+00
  0.00000000E+00  0.00000000E+00  0.00000000E+00
  0.00000000E+00  0.00000000E+00  0.00000000E+00
  0.00000000E+00  0.00000000E+00  0.00000000E+00
  0.00000000E+00  0.00000000E+00  0.00000000E+00
  0.00000000E+00  0.00000000E+00  0.00000000E+00
  0.00000000E+00  0.00000000E+00  0.00000000E+00
  0.00000000E+00  0.00000000E+00  0.00000000E+00
  0.00000000E+00  0.00000000E+00  0.00000000E+00
  0.00000000E+00  0.00000000E+00  0.00000000E+00
  0.00000000E+00  0.00000000E+00  0.00000000E+00
  0.00000000E+00  0.00000000E+00  0.00000000E+00
  0.00000000E+00  0.00000000E+00  0.00000000E+00
  0.00000000E+00  0.00000000E+00  0.00000000E+00
  0.00000000E+00  0.00000000E+00  0.00000000E+00
  0.00000000E+00  0.00000000E+00  0.00000000E+00
  0.00000000E+00  0.00000000E+00  0.00000000E+00
  0.00000000E+00  0.00000000E+00  0.00000000E+00
  0.00000000E+00  0.00000000E+00  0.00000000E+00
  0.00000000E+00  0.00000000E+00  0.00000000E+00
  0.00000000E+00  0.00000000E+00  0.00000000E+00
  0.00000000E+00  0.00000000E+00  0.00000000E+00
  0.00000000E+00  0.00000000E+00  0.00000000E+00
  0.00000000E+00  0.00000000E+00  0.00000000E+00
  0.00000000E+00  0.00000000E+00  0.00000000E+00
  0.00000000E+00  0.00000000E+00  0.00000000E+00
  0.00000000E+00  0.00000000E+00  0.00000000E+00
  0.00000000E+00  0.00000000E+00  0.00000000E+00
  0.00000000E+00  0.00000000E+00  0.00000000E+00
