ZrO2\(1\1\1)\(0\0\1)                    
   1.00000000000000     
     7.3348647092074017    0.0000000000000000    0.0000000000000000
    -2.9426794057678576    6.0038008758193744    0.0000000000000000
     0.0000000000000000    0.0000000000000000   42.0868988037000022
   Zr   O 
    16    32
Direct
  0.3188527946065562  0.1313975445477737  0.3916953393507967
  0.9451704661815086  0.4365419206209609  0.4704068247927822
  0.5687393137563461  0.7377565636757879  0.5466841212134455
  0.1938362291593094  0.0339761490885309  0.6234820868946329
  0.7653833545260724  0.6176231094942679  0.3893188197835045
  0.3913043117717834  0.9109562501989075  0.4635535879879527
  0.0197900588613038  0.2177374032980168  0.5406123805175440
  0.6386089668581150  0.5192011933100886  0.6168645763934819
  0.8754384722537552  0.1747491651682651  0.3831344668422361
  0.4942212549579139  0.4761038083947469  0.4593850496535268
  0.1226864564311256  0.7828943008135383  0.5364404431625474
  0.7486933650871705  0.0763117869574543  0.6106856266443543
  0.3203015089743033  0.6600483933920387  0.3765096406067698
  0.9452412147603511  0.9561119460064518  0.4533096376507899
  0.5688129367952470  0.2573005811636833  0.5295923334627872
  0.1952306764323808  0.5625778171713520  0.6083071043109953
  0.3053646705232396  0.9248681295915517  0.3550680575720619
  0.9149412080734578  0.2335942896764820  0.4309189759709184
  0.5469179794083487  0.5346382919242103  0.5085565382434680
  0.1774940906486151  0.8478176129446595  0.5845832624519005
  0.9991762040627705  0.5359243453588434  0.3778430541423816
  0.6334924616199444  0.8344872909439900  0.4576380131719091
  0.2594930315983106  0.1402521736784692  0.5337947535743552
  0.8827912950007928  0.4331551766710362  0.6164187446582332
  0.9874284279416727  0.9381702015323796  0.4024164321715844
  0.6087639899108837  0.2408672856655443  0.4779934386290279
  0.2325519815604125  0.5457198622412989  0.5546686189710286
  0.8551233798949625  0.8545479371773084  0.6303232933029150
  0.4621841768711334  0.4931265410579542  0.4072063473264578
  0.0825423489055126  0.7964243368560702  0.4827852895777696
  0.7090707291965401  0.1011113711177316  0.5601640687922611
  0.3387906108642156  0.4003639942678205  0.6337573430341905
  0.1752284725189099  0.2935822254481693  0.3662490411156583
  0.8049179868362089  0.5927222776899868  0.4398415322969242
  0.4313393899656077  0.8973670414115418  0.5172158147348895
  0.0518951686729068  0.2008104181641741  0.5927960024137491
  0.6589461189499062  0.8393943128781345  0.3696699672911734
  0.2814523135142935  0.1481655554291734  0.4453363971210962
  0.9052908697574296  0.4529196936214319  0.5220170387341057
  0.5266441156279740  0.7557103952977968  0.5975876517695085
  0.6313181203011311  0.2607907366746147  0.3836086963167915
  0.2544572029331036  0.5535884850334583  0.4662009120842612
  0.8804426801835490  0.8593126746218545  0.5423619366667864
  0.5148997476140806  0.1581109144095265  0.6221401636609301
  0.3367789318849859  0.8462595858192330  0.4154075516612039
  0.9671833053310692  0.1592495991545846  0.4914355334856140
  0.5989415752566885  0.4602128755382324  0.5690787507445592
  0.2088261104068678  0.7692164496069651  0.6449347390726672
 
  0.00000000E+00  0.00000000E+00  0.00000000E+00
  0.00000000E+00  0.00000000E+00  0.00000000E+00
  0.00000000E+00  0.00000000E+00  0.00000000E+00
  0.00000000E+00  0.00000000E+00  0.00000000E+00
  0.00000000E+00  0.00000000E+00  0.00000000E+00
  0.00000000E+00  0.00000000E+00  0.00000000E+00
  0.00000000E+00  0.00000000E+00  0.00000000E+00
  0.00000000E+00  0.00000000E+00  0.00000000E+00
  0.00000000E+00  0.00000000E+00  0.00000000E+00
  0.00000000E+00  0.00000000E+00  0.00000000E+00
  0.00000000E+00  0.00000000E+00  0.00000000E+00
  0.00000000E+00  0.00000000E+00  0.00000000E+00
  0.00000000E+00  0.00000000E+00  0.00000000E+00
  0.00000000E+00  0.00000000E+00  0.00000000E+00
  0.00000000E+00  0.00000000E+00  0.00000000E+00
  0.00000000E+00  0.00000000E+00  0.00000000E+00
  0.00000000E+00  0.00000000E+00  0.00000000E+00
  0.00000000E+00  0.00000000E+00  0.00000000E+00
  0.00000000E+00  0.00000000E+00  0.00000000E+00
  0.00000000E+00  0.00000000E+00  0.00000000E+00
  0.00000000E+00  0.00000000E+00  0.00000000E+00
  0.00000000E+00  0.00000000E+00  0.00000000E+00
  0.00000000E+00  0.00000000E+00  0.00000000E+00
  0.00000000E+00  0.00000000E+00  0.00000000E+00
  0.00000000E+00  0.00000000E+00  0.00000000E+00
  0.00000000E+00  0.00000000E+00  0.00000000E+00
  0.00000000E+00  0.00000000E+00  0.00000000E+00
  0.00000000E+00  0.00000000E+00  0.00000000E+00
  0.00000000E+00  0.00000000E+00  0.00000000E+00
  0.00000000E+00  0.00000000E+00  0.00000000E+00
  0.00000000E+00  0.00000000E+00  0.00000000E+00
  0.00000000E+00  0.00000000E+00  0.00000000E+00
  0.00000000E+00  0.00000000E+00  0.00000000E+00
  0.00000000E+00  0.00000000E+00  0.00000000E+00
  0.00000000E+00  0.00000000E+00  0.00000000E+00
  0.00000000E+00  0.00000000E+00  0.00000000E+00
  0.00000000E+00  0.00000000E+00  0.00000000E+00
  0.00000000E+00  0.00000000E+00  0.00000000E+00
  0.00000000E+00  0.00000000E+00  0.00000000E+00
  0.00000000E+00  0.00000000E+00  0.00000000E+00
  0.00000000E+00  0.00000000E+00  0.00000000E+00
  0.00000000E+00  0.00000000E+00  0.00000000E+00
  0.00000000E+00  0.00000000E+00  0.00000000E+00
  0.00000000E+00  0.00000000E+00  0.00000000E+00
  0.00000000E+00  0.00000000E+00  0.00000000E+00
  0.00000000E+00  0.00000000E+00  0.00000000E+00
  0.00000000E+00  0.00000000E+00  0.00000000E+00
  0.00000000E+00  0.00000000E+00  0.00000000E+00
